 $BASIS GBASIS=N31 NGAUSS=6 NDFUNC=1 NPFUNC=1 $END
 $CONTRL SCFTYP=RHF RUNTYP=OPTIMIZE DFTTYP=B3LYP MAXIT=60 MULT=1 ICHARG=0 $END 
 $SYSTEM MEMDDI=1000 MWORDS=30 $END
 $STATPT NSTEP=999 $END
 $SCF DIRSCF=.TRUE. $END
 $DATA

C1
C 6.0000000 0.96980 -0.81490 0.00290
C 6.0000000 0.09440 1.44350 0.01160
C 6.0000000 1.37970 1.93850 0.01640
C 6.0000000 3.03220 -2.55750 -0.00100
H 1.0000000 4.09600 1.71060 -0.86170
C 6.0000000 -0.12240 0.06070 0.00480
C 6.0000000 2.25490 -0.30980 0.00780
C 6.0000000 2.46260 1.06910 0.01500
O 8.0000000 -4.05370 -1.33810 -0.01070
O 8.0000000 -4.91860 0.70980 -0.00260
O 8.0000000 3.72770 1.56320 0.02020
C 6.0000000 -3.86720 -0.13600 -0.00440
O 8.0000000 3.31840 -1.15740 0.00600
H 1.0000000 -5.77880 0.26800 -0.00660
C 6.0000000 -1.49260 -0.47040 -0.00080
C 6.0000000 -2.54530 0.37640 0.00100
H 1.0000000 -1.65810 -1.53760 -0.00640
H 1.0000000 -2.37980 1.44360 0.00660
H 1.0000000 0.80770 -1.88270 0.00220
H 1.0000000 -0.74580 2.12200 0.01340
H 1.0000000 1.54590 3.00560 0.02130
H 1.0000000 3.96630 -3.11930 -0.00180
H 1.0000000 2.45430 -2.81460 0.88660
H 1.0000000 2.45780 -2.80640 -0.89330
 $END
