 $BASIS GBASIS=N31 NGAUSS=6 NDFUNC=1 NPFUNC=1 $END
 $CONTRL SCFTYP=RHF RUNTYP=OPTIMIZE DFTTYP=B3LYP MAXIT=60 MULT=1 ICHARG=0 $END 
 $SYSTEM MEMDDI=1000 MWORDS=30 $END
 $STATPT NSTEP=999 $END
 $SCF DIRSCF=.TRUE. $END
 $DATA

C1
C 6.0000000 1.47200 0.48110 -0.00110
C 6.0000000 0.87470 -0.89250 -0.26480
C 6.0000000 2.96750 0.59940 -0.29490
C 6.0000000 -0.56940 -0.94260 0.25910
C 6.0000000 3.67480 -0.53450 0.44280
C 6.0000000 -2.88750 0.15890 -0.33170
C 6.0000000 5.65290 0.94260 0.94200
C 6.0000000 -3.33920 -1.21940 -0.80250
C 6.0000000 -4.97520 0.37550 1.06910
C 6.0000000 0.77450 -1.12010 -1.78340
C 6.0000000 3.25960 0.60290 -1.78910
C 6.0000000 -0.51980 -0.80960 1.78430
C 6.0000000 5.67400 -1.43010 1.60360
C 6.0000000 5.86290 -0.85040 -0.79400
C 6.0000000 -2.88700 -1.42790 -2.25410
C 6.0000000 -5.46180 0.60230 2.50880
H 1.0000000 7.44480 1.88680 1.02640
O 8.0000000 1.13940 2.48590 -1.27800
O 8.0000000 -4.88380 2.19630 -0.42010
C 6.0000000 1.70300 -2.01970 0.33100
C 6.0000000 3.45810 1.93740 0.28840
C 6.0000000 -1.19480 -2.29160 -0.06890
C 6.0000000 3.17700 -1.87990 -0.08230
C 6.0000000 4.97360 2.04020 0.13210
C 6.0000000 -2.71280 -2.28490 0.09050
C 6.0000000 -3.45130 0.48490 1.04560
C 6.0000000 -4.86280 -1.33150 -0.76880
C 6.0000000 -5.40150 -1.02120 0.62220
O 8.0000000 7.07150 1.03130 0.77370
O 8.0000000 -6.92530 1.50100 0.06150
C 6.0000000 -5.59080 1.42380 0.18270
C 6.0000000 0.65170 1.51520 -0.73170
H 1.0000000 -7.27430 2.19080 -0.51930
C 6.0000000 -0.80490 1.32460 -0.74310
C 6.0000000 5.18110 -0.44780 0.51240
C 6.0000000 -1.37060 0.20350 -0.28050
H 1.0000000 1.36950 0.70240 1.08630
H 1.0000000 3.30950 -0.47440 1.50010
H 1.0000000 -3.22820 0.91170 -1.05730
H 1.0000000 1.66340 -2.01160 1.42000
H 1.0000000 1.33060 -2.98300 -0.02760
H 1.0000000 1.76650 -1.04310 -2.22860
H 1.0000000 0.36590 -2.11210 -1.97600
H 1.0000000 0.12020 -0.36630 -2.22140
H 1.0000000 2.98090 2.75820 -0.24350
H 1.0000000 3.19400 1.98050 1.34440
H 1.0000000 2.52730 1.22720 -2.30110
H 1.0000000 4.26000 0.99950 -1.96290
H 1.0000000 3.20080 -0.41550 -2.17320
H 1.0000000 -1.43940 2.10950 -1.13330
H 1.0000000 -0.93400 -2.66990 -1.04960
H 1.0000000 -0.79500 -3.03000 0.65610
H 1.0000000 -0.05360 0.13880 2.05140
H 1.0000000 -1.53300 -0.84200 2.18500
H 1.0000000 0.06250 -1.63100 2.20190
H 1.0000000 3.27330 -1.95320 -1.15580
H 1.0000000 3.73450 -2.69680 0.37980
H 1.0000000 5.29950 3.01590 0.51850
H 1.0000000 5.26840 1.98430 -0.91140
H 1.0000000 -2.97550 -2.09760 1.13310
H 1.0000000 -3.10630 -3.26760 -0.19260
H 1.0000000 5.41770 1.08190 2.00240
H 1.0000000 5.36930 -2.44400 1.34430
H 1.0000000 6.76100 -1.38330 1.67050
H 1.0000000 5.23870 -1.15440 2.56420
H 1.0000000 5.63860 -0.11180 -1.56360
H 1.0000000 6.94100 -0.89980 -0.64100
H 1.0000000 5.49560 -1.82700 -1.10960
H 1.0000000 -3.04980 -0.20600 1.78920
H 1.0000000 -3.16290 1.50190 1.32460
H 1.0000000 -5.29210 -0.65530 -1.50570
H 1.0000000 -5.14320 -2.35460 -1.04180
H 1.0000000 -1.80060 -1.35950 -2.30960
H 1.0000000 -3.20710 -2.41200 -2.59650
H 1.0000000 -3.33220 -0.66040 -2.88710
H 1.0000000 -5.02450 -1.75920 1.33370
H 1.0000000 -6.49330 -1.07870 0.61050
H 1.0000000 -5.15610 1.59350 2.84370
H 1.0000000 -6.54870 0.52700 2.54100
H 1.0000000 -5.02580 -0.15280 3.16290
 $END
