 $BASIS GBASIS=N21 NGAUSS=3 $END
 $CONTRL SCFTYP=RHF MAXIT=60 MULT=1 ICHARG=0 $END
 $SYSTEM MEMDDI=1000 MWORDS=30 $END
 $SCF DIRSCF=.TRUE. $END
 $DATA

C1
C 6.0000000 1.1514289937 0.8892679310 -0.4698649346
H 1.0000000 0.7565062994 -1.9949941551 1.0806417658
H 1.0000000 0.3657400950 -1.9031036739 -0.5427771100
H 1.0000000 2.4999910635 -0.4196772473 -0.1079189764
O 8.0000000 -1.7865903604 -0.8941142983 -0.6078850624
O 8.0000000 -1.6768086334 1.2477525346 0.2119175579
O 8.0000000 2.5313301260 0.5892438196 -0.1923210305
C 6.0000000 -1.1612410657 -0.0046573267 -0.0392069441
H 1.0000000 -2.6094715459 1.2914191214 -0.1411889265
C 6.0000000 0.2795181284 -0.0701268015 0.4016472141
N 7.0000000 0.8439379245 -1.4279304080 0.2330441505
H 1.0000000 0.3715855683 0.2464144380 1.4424644694
H 1.0000000 0.9386325113 1.9250857823 -0.2016775025
H 1.0000000 0.8817208952 0.7317202838 -1.5288446706
 $END
