 $BASIS GBASIS=N21 NGAUSS=3 $END
 $CONTRL SCFTYP=RHF RUNTYP=OPTIMIZE DFTTYP=B3LYP MAXIT=60 MULT=1 ICHARG=0 $END 
 $SYSTEM MEMDDI=1000 MWORDS=30 $END
 $STATPT NSTEP=999 $END
 $SCF DIRSCF=.TRUE. $END
 $DATA

C1
C 6.0000000 1.17140 0.83528 -0.50733
H 1.0000000 0.55820 -2.01429 1.06116
H 1.0000000 0.39379 -1.91661 -0.56352
H 1.0000000 2.67470 -0.26127 -0.03945
O 8.0000000 -1.80406 -0.79116 -0.67712
O 8.0000000 -1.71127 1.21829 0.34446
O 8.0000000 2.52577 0.69572 -0.13368
C 6.0000000 -1.17870 0.03677 -0.04739
H 1.0000000 -2.62804 1.25021 0.01961
C 6.0000000 0.28494 -0.09394 0.36198
N 7.0000000 0.79983 -1.45514 0.24857
H 1.0000000 0.38572 0.24059 1.40002
H 1.0000000 0.89049 1.88090 -0.35907
H 1.0000000 1.02351 0.58095 -1.57021
 $END
