 $BASIS GBASIS=N31 NGAUSS=6 NDFUNC=1 NPFUNC=1 $END
 $CONTRL SCFTYP=RHF RUNTYP=OPTIMIZE DFTTYP=B3LYP MAXIT=60 MULT=1 ICHARG=0 $END 
 $SYSTEM MEMDDI=1000 MWORDS=30 $END
 $STATPT NSTEP=999 $END
 $SCF DIRSCF=.TRUE. $END
 $DATA

C1
C 6.0000000 2.81620 -1.67660 0.05360
C 6.0000000 3.39590 1.02330 0.43770
C 6.0000000 4.10170 -1.27160 0.37580
C 6.0000000 4.39040 0.06640 0.56690
C 6.0000000 -1.95460 -0.71780 -0.91040
C 6.0000000 -4.39250 0.66310 -0.58850
C 6.0000000 -4.79050 -0.57970 1.67210
H 1.0000000 0.93130 -3.03210 -0.49030
O 8.0000000 1.23600 2.81200 0.12970
O 8.0000000 -1.26880 1.92700 -0.50800
O 8.0000000 0.16450 -2.45430 -0.60540
C 6.0000000 -3.92330 -0.29950 0.47180
C 6.0000000 -0.57100 -0.23550 -0.55820
C 6.0000000 0.43230 -1.14310 -0.42240
C 6.0000000 1.01940 1.62900 -0.02990
C 6.0000000 -0.35110 1.13860 -0.37940
C 6.0000000 1.80420 -0.73020 -0.07990
C 6.0000000 2.10170 0.63260 0.11500
C 6.0000000 -2.76160 -0.89260 0.35030
H 1.0000000 2.60090 -2.72410 -0.09780
H 1.0000000 3.62550 2.06790 0.58780
H 1.0000000 -2.44140 0.01410 -1.55490
H 1.0000000 -1.88480 -1.67210 -1.43240
H 1.0000000 4.88480 -2.00810 0.47880
H 1.0000000 5.39650 0.36810 0.81790
H 1.0000000 -2.38230 -1.50690 1.15340
H 1.0000000 -4.86770 0.10880 -1.39780
H 1.0000000 -5.11000 1.35980 -0.15500
H 1.0000000 -3.53910 1.21700 -0.97970
H 1.0000000 -4.55110 0.12750 2.46630
H 1.0000000 -5.83940 -0.47370 1.39520
H 1.0000000 -4.60810 -1.59540 2.02290
 $END
