 $BASIS GBASIS=N31 NGAUSS=6 NDFUNC=1 NPFUNC=1 $END
 $CONTRL SCFTYP=RHF RUNTYP=OPTIMIZE DFTTYP=B3LYP MAXIT=60 MULT=1 ICHARG=0 $END 
 $SYSTEM MEMDDI=1000 MWORDS=30 $END
 $STATPT NSTEP=999 $END
 $SCF DIRSCF=.TRUE. $END
 $DATA

C1
C 6.0000000 13.89090 -0.37160 -0.51710
C 6.0000000 14.40450 -0.25240 0.91910
C 6.0000000 -13.89380 0.37260 -0.50430
C 6.0000000 -14.40580 0.26430 0.93340
C 6.0000000 7.67080 -2.30430 -0.50620
C 6.0000000 12.44470 -2.54460 -0.50800
C 6.0000000 2.87780 -2.02830 -0.50460
C 6.0000000 14.75260 2.24020 2.19320
C 6.0000000 17.31060 2.13420 1.68460
C 6.0000000 -2.88080 2.02920 -0.51690
C 6.0000000 -7.67370 2.30520 -0.51520
C 6.0000000 -12.44770 2.54550 -0.51340
C 6.0000000 -14.73240 -2.25750 2.15360
C 6.0000000 -17.29700 -2.14660 1.68030
C 6.0000000 7.76650 -0.80040 -0.51200
C 6.0000000 12.54050 -1.04060 -0.51380
C 6.0000000 2.97360 -0.52430 -0.51040
C 6.0000000 15.93050 1.54060 1.56530
C 6.0000000 -2.97650 0.52530 -0.51100
C 6.0000000 -7.76950 0.80130 -0.50940
C 6.0000000 -12.54350 1.04160 -0.50760
C 6.0000000 -15.92030 -1.54570 1.55900
C 6.0000000 9.02610 -0.17640 -0.51510
C 6.0000000 6.63000 -0.04400 -0.51430
C 6.0000000 10.15760 -0.92940 -0.51290
C 6.0000000 5.37430 -0.66610 -0.51120
C 6.0000000 11.42780 -0.30010 -0.51600
C 6.0000000 4.22760 0.09700 -0.51350
C 6.0000000 1.82590 0.23940 -0.51270
C 6.0000000 0.57250 -0.38150 -0.50960
C 6.0000000 15.75480 0.41670 0.91580
C 6.0000000 -0.57550 0.38250 -0.51190
C 6.0000000 -1.82890 -0.23850 -0.50880
C 6.0000000 -4.23060 -0.09600 -0.50800
C 6.0000000 -5.37720 0.66710 -0.51020
C 6.0000000 -6.63300 0.04490 -0.50710
C 6.0000000 -9.02900 0.17730 -0.50630
C 6.0000000 -10.16060 0.93030 -0.50850
C 6.0000000 -11.43070 0.30100 -0.50540
C 6.0000000 -15.75620 -0.40470 0.93680
H 1.0000000 9.09470 0.90140 -0.51930
H 1.0000000 6.69870 1.03380 -0.51850
H 1.0000000 7.64820 -2.66300 0.52280
H 1.0000000 6.75920 -2.61230 -1.01840
H 1.0000000 8.53560 -2.72540 -1.01890
H 1.0000000 10.08890 -2.00720 -0.50870
H 1.0000000 5.30560 -1.74400 -0.50700
H 1.0000000 11.49640 0.77770 -0.52020
H 1.0000000 4.29630 1.17480 -0.51760
H 1.0000000 13.80270 0.62260 -0.95520
H 1.0000000 14.58980 -0.96690 -1.10470
H 1.0000000 12.42100 -2.91110 -1.53420
H 1.0000000 13.31010 -2.96180 0.00690
H 1.0000000 11.53370 -2.84860 0.00750
H 1.0000000 1.89450 1.31720 -0.51680
H 1.0000000 2.85530 -2.38700 0.52450
H 1.0000000 1.96620 -2.33630 -1.01670
H 1.0000000 3.74260 -2.44940 -1.01730
H 1.0000000 13.70550 0.34290 1.50670
H 1.0000000 14.49260 -1.24660 1.35720
H 1.0000000 0.50390 -1.45930 -0.50540
H 1.0000000 16.57770 -0.03050 0.37800
H 1.0000000 -0.50680 1.46030 -0.51600
H 1.0000000 -1.89750 -1.31630 -0.50460
H 1.0000000 14.56050 1.81520 3.17840
H 1.0000000 14.97200 3.30320 2.29260
H 1.0000000 13.87330 2.10810 1.56280
H 1.0000000 18.02750 1.49280 1.17200
H 1.0000000 17.32040 3.12520 1.23090
H 1.0000000 17.58210 2.21380 2.73730
H 1.0000000 -4.29920 -1.17380 -0.50380
H 1.0000000 -2.85820 2.38790 -1.54590
H 1.0000000 -3.74560 2.45040 -0.00410
H 1.0000000 -1.96920 2.33720 -0.00470
H 1.0000000 -5.30860 1.74490 -0.51440
H 1.0000000 -6.70160 -1.03290 -0.50300
H 1.0000000 -9.09770 -0.90050 -0.50210
H 1.0000000 -7.65120 2.66390 -1.54430
H 1.0000000 -8.53850 2.72640 -0.00250
H 1.0000000 -6.76220 2.61320 -0.00310
H 1.0000000 -10.09190 2.00810 -0.51270
H 1.0000000 -11.49940 -0.77680 -0.50120
H 1.0000000 -13.80620 -0.62500 -0.93480
H 1.0000000 -14.59340 0.96330 -1.09560
H 1.0000000 -12.42520 2.90420 -1.54250
H 1.0000000 -13.31250 2.96660 -0.00070
H 1.0000000 -11.53610 2.85350 -0.00130
H 1.0000000 -13.70620 -0.32640 1.52470
H 1.0000000 -14.49350 1.26180 1.36400
H 1.0000000 -16.58860 0.05650 0.42610
H 1.0000000 -14.57210 -1.90740 3.17330
H 1.0000000 -14.91970 -3.33120 2.16320
H 1.0000000 -13.84630 -2.04860 1.55420
H 1.0000000 -18.02220 -1.49450 1.19370
H 1.0000000 -17.30970 -3.12560 1.20120
H 1.0000000 -17.55480 -2.25440 2.73390
 $END
