 $BASIS GBASIS=N21 NGAUSS=3 $END
 $CONTRL SCFTYP=RHF RUNTYP=OPTIMIZE DFTTYP=B3LYP MAXIT=60 MULT=1 ICHARG=0 $END 
 $SYSTEM MEMDDI=1000 MWORDS=30 $END
 $STATPT NSTEP=999 $END
 $SCF DIRSCF=.TRUE. $END
 $DATA

C1
C 6.0000000 -2.30951410 -2.59144460 0.46132060
C 6.0000000 2.67796920 2.49766530 0.27856310
H 1.0000000 -2.71015860 2.51742180 1.43234060
H 1.0000000 2.75807010 -2.84234900 1.65206890
H 1.0000000 4.06673960 -2.48019410 -0.79301830
H 1.0000000 -3.50943600 2.77956250 -0.83743670
H 1.0000000 5.02494660 -0.30854830 -0.54677160
H 1.0000000 -5.00731100 0.31941590 -1.25081090
H 1.0000000 -3.51337160 -4.13099820 0.22120980
H 1.0000000 1.85153540 4.08893460 1.09623600
O 8.0000000 -2.48409690 1.59024210 1.59339410
O 8.0000000 3.09921450 -2.20718510 1.00982950
O 8.0000000 3.74992080 -1.97720500 -1.56153510
O 8.0000000 -2.54338750 2.85159170 -0.89913510
O 8.0000000 4.42611800 0.33065100 -0.13434990
O 8.0000000 -4.33160400 0.87709130 -0.84107530
O 8.0000000 -3.60585580 -3.18827690 0.40443200
O 8.0000000 1.55118840 3.31567650 0.60354620
O 8.0000000 -0.09563590 -0.73853050 0.12653420
C 6.0000000 -1.27066930 -0.28275580 0.81783900
C 6.0000000 1.10442920 -0.77615790 0.87731800
C 6.0000000 -1.52524190 1.22118550 0.60429820
C 6.0000000 2.03774530 -1.77140040 0.15359730
C 6.0000000 -2.47373080 -1.08737200 0.32412810
C 6.0000000 2.69268650 -1.14597140 -1.08860100
C 6.0000000 -2.02927920 1.52355280 -0.82730920
C 6.0000000 3.20952030 0.29314470 -0.86380480
C 6.0000000 2.15768180 1.13034460 -0.13081680
C 6.0000000 -3.06133740 0.51224830 -1.36660910
O 8.0000000 1.69109360 0.48311640 1.06519280
O 8.0000000 -2.71440000 -0.81595440 -1.07081200
H 1.0000000 -1.14866540 -0.44539170 1.89796630
H 1.0000000 0.89909440 -1.13576200 1.89589680
H 1.0000000 -0.59405550 1.77627280 0.76531470
H 1.0000000 1.43735590 -2.63440760 -0.16143840
H 1.0000000 -3.34650040 -0.77660150 0.91144200
H 1.0000000 1.93042600 -1.10369170 -1.87511730
H 1.0000000 -1.16308010 1.47388320 -1.49637250
H 1.0000000 3.36089010 0.74597780 -1.85790780
H 1.0000000 1.31019330 1.27725640 -0.81511960
H 1.0000000 -3.08723670 0.55346800 -2.46242290
H 1.0000000 -1.82867060 -2.81091220 1.42737950
H 1.0000000 -1.66448440 -2.95826100 -0.34583850
H 1.0000000 3.24138930 2.93035440 -0.56034550
H 1.0000000 3.35481460 2.37821360 1.13130030
 $END
