 $BASIS GBASIS=N21 NGAUSS=3 $END
 $CONTRL SCFTYP=RHF MAXIT=60 MULT=1 ICHARG=0 $END
 $SYSTEM MEMDDI=1000 MWORDS=30 $END
 $SCF DIRSCF=.TRUE. $END
 $DATA

C1
C 6.0000000 -2.1281264452 -2.3913231338 -0.4906955259
C 6.0000000 1.9217906000 2.1480298510 -1.1854622534
H 1.0000000 -3.0815397984 1.7783599433 2.0647720355
H 1.0000000 3.5793825967 -1.3206428629 2.5405361126
H 1.0000000 4.2880103516 -2.0944135135 0.2152234228
H 1.0000000 -3.5044215741 2.6766226714 0.2163364962
H 1.0000000 4.4977021965 -0.5574466518 -1.1597427125
H 1.0000000 -4.1447441036 0.9400782248 -1.6861191089
H 1.0000000 -3.1018194308 -3.4562880752 -1.8762897155
H 1.0000000 1.2663001737 2.8476906818 0.5194527798
O 8.0000000 -2.7055534101 0.8582181259 2.2610637818
O 8.0000000 3.5861834972 -1.1625499108 1.5603092734
O 8.0000000 3.8647247296 -2.2839133841 -0.6827384270
O 8.0000000 -2.6828415194 2.8876536594 0.7600507996
O 8.0000000 3.9223044000 0.2653293876 -1.1511470500
O 8.0000000 -3.7184824428 1.3226895489 -0.8749145302
O 8.0000000 -3.2420849521 -2.5879814945 -1.4127318062
O 8.0000000 1.1048365643 3.1071920628 -0.4309155415
O 8.0000000 0.0373281116 -1.0536200231 0.6854751461
C 6.0000000 -1.2924908939 -0.5997514128 1.1188311017
C 6.0000000 1.2089280534 -0.4778911924 1.2877426663
C 6.0000000 -1.4846149215 0.8924556499 1.4752981840
C 6.0000000 2.2837123861 -1.5253856226 0.9957226735
C 6.0000000 -2.2255830906 -0.9533410478 -0.0246210704
C 6.0000000 2.5454763778 -1.6565469837 -0.5208948304
C 6.0000000 -1.7066020843 1.8874361008 0.2792188971
C 6.0000000 2.5948696014 -0.2934610247 -1.2792163439
C 6.0000000 1.5642078440 0.7163170121 -0.7786117801
C 6.0000000 -2.2697685948 1.2348789318 -1.0073084091
O 8.0000000 1.5460434919 0.7917172162 0.7121693216
O 8.0000000 -1.8361714982 -0.1174801185 -1.1902426054
H 1.0000000 -1.5786615301 -1.1490957925 2.0236280478
H 1.0000000 1.0913747799 -0.2974618876 2.3626924788
H 1.0000000 -0.6321944009 1.2640036077 2.0591951412
H 1.0000000 1.9356158698 -2.4893342811 1.3849980806
H 1.0000000 -3.2441483167 -0.6993194597 0.2738895506
H 1.0000000 1.7713899278 -2.2903948622 -0.9536593495
H 1.0000000 -0.7706133589 2.3860959237 0.0243803922
H 1.0000000 2.3514303304 -0.5008490210 -2.3353034182
H 1.0000000 0.5661729099 0.4156030404 -1.1027479473
H 1.0000000 -1.9234526799 1.7670630916 -1.8986074872
H 1.0000000 -2.1892678316 -3.0551341852 0.3856998335
H 1.0000000 -1.1473343123 -2.5194393268 -0.9618537020
H 1.0000000 1.7099091785 2.3128957192 -2.2438920326
H 1.0000000 2.9881230180 2.2906347179 -0.9944708692
 $END
