 $BASIS GBASIS=N31 NGAUSS=6 NDFUNC=1 NPFUNC=1 $END
 $CONTRL SCFTYP=RHF RUNTYP=OPTIMIZE DFTTYP=B3LYP MAXIT=60 MULT=1 ICHARG=0 $END 
 $SYSTEM MEMDDI=1000 MWORDS=30 $END
 $STATPT NSTEP=999 $END
 $SCF DIRSCF=.TRUE. $END
 $DATA

C1
C 6.0000000 5.27120 -4.10180 0.56995
C 6.0000000 5.04788 -5.62010 0.08393
C 6.0000000 6.80491 -3.59794 0.02616
C 6.0000000 3.91477 -3.29782 0.26076
C 6.0000000 3.60626 -6.22653 0.35550
C 6.0000000 7.67468 -2.20680 -0.30465
C 6.0000000 2.64894 -4.08093 -0.31447
C 6.0000000 4.69959 -0.97282 -0.57175
C 6.0000000 7.99628 0.16137 1.09634
C 6.0000000 9.34119 2.91081 1.10722
C 6.0000000 8.73072 3.76612 -0.07902
C 6.0000000 11.10989 -4.79215 0.35754
C 6.0000000 9.77936 -6.65953 1.13353
C 6.0000000 12.08250 -5.67790 -0.10724
C 6.0000000 10.74334 -7.54239 0.65300
C 6.0000000 11.88979 -7.05252 0.02720
C 6.0000000 11.08214 4.68633 -0.48353
C 6.0000000 9.29759 6.28061 -0.52787
C 6.0000000 12.02083 5.71954 -0.45464
C 6.0000000 10.23557 7.31998 -0.50651
C 6.0000000 11.59466 7.03970 -0.42492
C 6.0000000 4.95640 6.88485 0.44486
C 6.0000000 4.35753 4.61876 -0.05968
C 6.0000000 3.64459 7.29239 0.15608
C 6.0000000 3.04176 5.01709 -0.32979
C 6.0000000 2.68263 6.35499 -0.21429
C 6.0000000 3.36114 -2.61499 1.54239
C 6.0000000 7.01805 -8.55234 0.19508
C 6.0000000 6.63559 -0.42040 -2.53185
C 6.0000000 8.70566 -0.36036 -1.59114
C 6.0000000 5.72695 0.76638 2.06677
C 6.0000000 3.09630 1.55930 0.00000
H 1.0000000 9.60352 -2.65745 -0.48773
H 1.0000000 0.74804 -3.81986 -0.72166
H 1.0000000 10.71108 1.51657 1.30595
H 1.0000000 6.74973 3.76298 -0.83731
C 6.0000000 9.93872 -5.29077 0.94371
C 6.0000000 9.69595 4.94113 -0.41039
C 6.0000000 5.32179 5.53560 0.35066
O 8.0000000 4.57189 -2.87528 -1.97962
O 8.0000000 7.40291 -6.58837 -1.12166
O 8.0000000 9.11871 -3.53476 2.26375
O 8.0000000 4.76207 1.38102 -0.62367
O 8.0000000 7.89554 2.90336 3.06443
O 8.0000000 7.29014 5.67976 1.63385
C 6.0000000 4.67270 -6.00912 -1.41210
C 6.0000000 2.38836 -5.34824 0.47733
O 8.0000000 8.80579 -2.79843 -1.01799
O 8.0000000 1.44808 -3.29374 -0.28543
O 8.0000000 10.24953 1.92150 0.54859
C 6.0000000 6.88966 -7.10720 -0.14070
C 6.0000000 8.88562 -4.37319 1.40388
C 6.0000000 3.80340 0.85220 0.00000
C 6.0000000 8.42998 2.25728 2.16776
C 6.0000000 6.70887 5.09737 0.72743
O 8.0000000 6.02414 -6.50047 0.71903
O 8.0000000 7.77225 -4.57555 0.67850
O 8.0000000 3.74561 -0.41814 0.28096
O 8.0000000 8.46348 0.87401 2.24497
O 8.0000000 3.59744 -6.86460 -0.94691
N 7.0000000 7.29354 4.11700 -0.05935
C 6.0000000 8.30040 -1.38833 1.05849
C 6.0000000 4.36037 -2.40499 -0.85445
C 6.0000000 6.52071 0.12393 0.95369
C 6.0000000 7.22318 -0.97806 -1.19890
C 6.0000000 6.13806 -0.57187 -0.15990
H 1.0000000 5.35948 -4.14625 1.66529
H 1.0000000 6.76227 -4.01323 -0.98990
H 1.0000000 3.59867 -6.98889 1.14590
H 1.0000000 5.35897 -6.60631 -2.01052
H 1.0000000 4.31459 -5.23681 -2.08942
H 1.0000000 2.75274 -4.31898 -1.37390
H 1.0000000 4.11330 -2.02810 2.06917
H 1.0000000 2.96076 -3.33810 2.25851
H 1.0000000 2.50925 -1.95358 1.32029
H 1.0000000 2.15795 -5.12942 1.52479
H 1.0000000 1.49265 -5.86695 0.10685
H 1.0000000 9.38579 -1.50268 1.13386
H 1.0000000 7.82179 -1.79848 1.95562
H 1.0000000 4.44495 -0.56421 -1.55852
H 1.0000000 6.27474 -9.10443 -0.38399
H 1.0000000 6.85699 -8.71185 1.26352
H 1.0000000 8.02347 -8.88830 -0.06245
H 1.0000000 6.50906 0.67679 -2.35744
H 1.0000000 7.29224 -0.43709 -3.40844
H 1.0000000 5.67546 -0.75923 -2.89946
H 1.0000000 9.52049 -0.53061 -0.87996
H 1.0000000 9.06649 -0.87540 -2.49979
H 1.0000000 8.69481 0.71170 -1.81764
H 1.0000000 8.37965 0.71624 0.25642
H 1.0000000 11.27713 -3.72463 0.25551
H 1.0000000 8.90425 -7.03012 1.65409
H 1.0000000 6.25705 0.76616 3.02141
H 1.0000000 4.78639 0.26371 2.28277
H 1.0000000 5.53279 1.81804 1.81468
H 1.0000000 12.98837 -5.29939 -0.57492
H 1.0000000 10.60028 -8.61286 0.76643
H 1.0000000 2.94991 1.54374 1.10582
H 1.0000000 2.65790 1.99770 0.00000
H 1.0000000 2.31836 0.94982 -0.52194
H 1.0000000 9.99340 3.56268 1.70405
H 1.0000000 12.64080 -7.74467 -0.34477
H 1.0000000 8.79371 3.13140 -0.97650
H 1.0000000 11.45982 3.66691 -0.49471
H 1.0000000 8.25215 6.56435 -0.56915
H 1.0000000 13.08101 5.48534 -0.41440
H 1.0000000 9.89378 8.35188 -0.50706
H 1.0000000 12.31656 7.84642 -0.34036
H 1.0000000 5.69106 7.62769 0.74536
H 1.0000000 4.63017 3.58046 -0.13564
H 1.0000000 3.36802 8.34134 0.23354
H 1.0000000 2.29031 4.28643 -0.61780
H 1.0000000 1.65713 6.66319 -0.40796
 $END
