 $BASIS GBASIS=N21 NGAUSS=3 $END
 $CONTRL SCFTYP=RHF RUNTYP=OPTIMIZE DFTTYP=B3LYP MAXIT=60 MULT=1 ICHARG=0 $END 
 $SYSTEM MEMDDI=1000 MWORDS=30 $END
 $STATPT NSTEP=999 $END
 $SCF DIRSCF=.TRUE. $END
 $DATA

C1
C 6.0000000 0.44820 0.30261 0.30960
H 1.0000000 0.26477 0.33515 1.39143
C 6.0000000 -0.53652 -0.67443 -0.35061
C 6.0000000 1.90282 -0.06553 0.10907
O 8.0000000 2.76744 0.66879 -0.31550
O 8.0000000 2.15949 -1.34765 0.47870
H 1.0000000 -0.37479 -0.72826 -1.43197
H 1.0000000 -0.42692 -1.68116 0.05981
H 1.0000000 0.32546 1.31688 -0.07677
H 1.0000000 -1.56570 -0.34354 -0.18195
H 1.0000000 3.10887 -1.48453 0.31914
 $END
