 $BASIS GBASIS=N21 NGAUSS=3 $END
 $CONTRL SCFTYP=RHF MAXIT=60 MULT=1 ICHARG=0 $END
 $SYSTEM MEMDDI=1000 MWORDS=30 $END
 $SCF DIRSCF=.TRUE. $END
 $DATA

C1
C 6.0000000 0.4395717178 0.3425831297 0.3099352448
H 1.0000000 0.2490205744 0.3692065336 1.3904689540
C 6.0000000 -0.5149565411 -0.6803334866 -0.3496403822
C 6.0000000 1.8907924304 -0.0327450863 0.1038570637
O 8.0000000 2.7986756378 0.6751390282 -0.3121777102
O 8.0000000 2.0929841171 -1.3556633984 0.4728277841
H 1.0000000 -0.3761344271 -0.6936688077 -1.4357553954
H 1.0000000 -0.3051416096 -1.6781601571 0.0415489528
H 1.0000000 0.3001108512 1.3470299658 -0.0946553457
H 1.0000000 -1.5566919357 -0.4210370543 -0.1371281496
H 1.0000000 3.0548891847 -1.5740206669 0.3216689837
 $END
