 $BASIS GBASIS=N31 NGAUSS=6 NDFUNC=1 NPFUNC=1 $END
 $CONTRL SCFTYP=RHF RUNTYP=OPTIMIZE DFTTYP=B3LYP MAXIT=60 MULT=1 ICHARG=0 $END 
 $SYSTEM MEMDDI=1000 MWORDS=30 $END
 $STATPT NSTEP=999 $END
 $SCF DIRSCF=.TRUE. $END
 $DATA

C1
C 6.0000000 0.63200 2.14230 -0.00100
C 6.0000000 2.02050 2.15100 0.00440
C 6.0000000 2.72890 0.96890 0.01120
C 6.0000000 -3.74020 -0.42570 -0.00610
H 1.0000000 2.96550 -1.75510 -0.86270
C 6.0000000 2.05900 -0.25510 0.01270
O 8.0000000 -2.16550 1.93770 -0.01040
O 8.0000000 0.53120 -2.60760 0.01570
O 8.0000000 2.75910 -1.41560 0.01890
C 6.0000000 -1.53170 0.90100 -0.00390
C 6.0000000 -0.07450 -1.55370 0.01010
C 6.0000000 -2.23350 -0.39580 -0.00130
C 6.0000000 -0.05370 0.93460 0.00080
C 6.0000000 0.66280 -0.27700 0.00770
C 6.0000000 -1.54970 -1.54800 0.00530
H 1.0000000 0.08570 3.07390 -0.00220
H 1.0000000 2.54990 3.09230 0.00300
H 1.0000000 -2.08590 -2.48550 0.00710
H 1.0000000 3.80870 0.99000 0.01510
H 1.0000000 -4.10010 -0.43680 -1.03490
H 1.0000000 -4.08750 -1.32070 0.51000
H 1.0000000 -4.12270 0.45890 0.50310
 $END
