 $BASIS GBASIS=N21 NGAUSS=3 $END
 $CONTRL SCFTYP=RHF DFTTYP=B3LYP MAXIT=60 MULT=1 ICHARG=0 $END
 $SYSTEM MEMDDI=1000 MWORDS=30 $END
 $SCF DIRSCF=.TRUE. $END
 $ELPOT  IEPOT=1 WHERE=PDC $END
 $PDC PTSEL=CHELPG CONSTR=CHARGE $END
 $DATA

C1
C 6.0000000 1.94377 2.19075 0.12328
C 6.0000000 1.24360 0.86090 -0.00295
C 6.0000000 1.97505 -0.33685 0.10854
C 6.0000000 1.34264 -1.57462 -0.00715
C 6.0000000 -0.03617 -1.63721 -0.23516
C 6.0000000 -0.79560 -0.46964 -0.35044
C 6.0000000 -0.13150 0.76186 -0.22843
C 6.0000000 -2.29627 -0.51725 -0.59831
C 6.0000000 -3.10759 0.04218 0.54562
C 6.0000000 -3.98332 1.04742 0.44855
O 8.0000000 3.32751 -0.21884 0.33424
H 1.0000000 2.77096 2.27210 -0.59073
H 1.0000000 1.24789 3.01506 -0.05553
H 1.0000000 2.37926 2.31800 1.12181
H 1.0000000 1.92338 -2.49141 0.07985
H 1.0000000 -0.51559 -2.60892 -0.32641
H 1.0000000 -0.70889 1.68079 -0.30907
H 1.0000000 -2.54451 0.03230 -1.51585
H 1.0000000 -2.58808 -1.56234 -0.76929
H 1.0000000 -2.93969 -0.42575 1.51659
H 1.0000000 -4.17643 1.54664 -0.49921
H 1.0000000 -4.53870 1.40362 1.31179
H 1.0000000 3.72730 -1.09692 0.38503
 $END
