 $BASIS GBASIS=N31 NGAUSS=6 NDFUNC=1 NPFUNC=1 $END
 $CONTRL SCFTYP=RHF RUNTYP=OPTIMIZE DFTTYP=B3LYP MAXIT=60 MULT=1 ICHARG=0 $END 
 $SYSTEM MEMDDI=1000 MWORDS=30 $END
 $STATPT NSTEP=999 $END
 $SCF DIRSCF=.TRUE. $END
 $DATA

C1
C 6.0000000 0.06340 0.16570 -0.51890
C 6.0000000 0.00880 -0.38220 0.90760
C 6.0000000 1.45200 0.76770 -0.77660
C 6.0000000 -0.92060 1.34450 -0.64750
C 6.0000000 2.50780 -0.34190 -0.74880
C 6.0000000 -0.71350 2.29350 0.51620
C 6.0000000 -2.02640 -1.40050 0.13540
C 6.0000000 3.88430 0.25900 -0.45710
C 6.0000000 -1.74300 3.42350 0.45330
C 6.0000000 -2.99220 -2.55150 0.42440
O 8.0000000 2.52250 -2.45200 0.35340
C 6.0000000 1.74240 1.75510 0.36330
C 6.0000000 0.70470 2.87410 0.40030
C 6.0000000 2.12730 -1.31020 0.35030
O 8.0000000 1.32540 -0.83640 1.32680
C 6.0000000 -2.34150 0.84410 -0.83750
C 6.0000000 -2.71190 -0.04570 0.36680
O 8.0000000 -0.26190 -0.85180 -1.45090
O 8.0000000 -0.88720 -1.49140 0.98860
O 8.0000000 -1.58680 -1.45710 -1.22910
H 1.0000000 -0.32730 0.40380 1.58390
H 1.0000000 1.46730 1.27530 -1.74100
H 1.0000000 -0.65350 1.88550 -1.55530
H 1.0000000 2.52600 -0.85880 -1.70820
H 1.0000000 1.72520 1.22010 1.31280
H 1.0000000 2.73130 2.18940 0.21670
H 1.0000000 -0.81620 1.75240 1.45680
H 1.0000000 -3.02440 1.69200 -0.89010
H 1.0000000 -2.40490 0.26150 -1.75650
H 1.0000000 3.86400 0.76120 0.51010
H 1.0000000 4.63080 -0.53500 -0.43870
H 1.0000000 4.13870 0.97890 -1.23510
H 1.0000000 0.77820 3.46280 -0.51410
H 1.0000000 0.90060 3.51760 1.25800
H 1.0000000 -2.74740 3.00320 0.50540
H 1.0000000 -1.58930 4.10230 1.29210
H 1.0000000 -1.62590 3.96990 -0.48260
H 1.0000000 -3.79280 -0.17740 0.41550
H 1.0000000 -2.34730 0.40450 1.29010
H 1.0000000 -3.31810 -2.50020 1.46320
H 1.0000000 -3.85840 -2.47250 -0.23250
H 1.0000000 -2.48810 -3.50170 0.24820
 $END
