 $BASIS GBASIS=N21 NGAUSS=3 $END
 $CONTRL SCFTYP=RHF RUNTYP=OPTIMIZE DFTTYP=B3LYP MAXIT=60 MULT=1 ICHARG=0 $END 
 $SYSTEM MEMDDI=1000 MWORDS=30 $END
 $STATPT NSTEP=999 $END
 $SCF DIRSCF=.TRUE. $END
 $DATA

C1
O 8.0000000 -1.31463610 2.54249130 -0.20053240
C 6.0000000 -0.81388790 1.32601310 0.26719680
C 6.0000000 -1.76419050 0.22003330 -0.19895620
H 1.0000000 -1.86022590 0.29981230 -1.29130680
O 8.0000000 -3.04108530 0.30776240 0.42735520
C 6.0000000 -1.17747220 -1.14042580 0.16761050
H 1.0000000 -1.15029750 -1.22438960 1.26609980
O 8.0000000 -1.93820700 -2.21676790 -0.37484250
C 6.0000000 0.25128700 -1.28172470 -0.36205830
H 1.0000000 0.22424600 -1.26173250 -1.46279610
O 8.0000000 0.85145660 -2.48334630 0.09992220
C 6.0000000 1.09384030 -0.09515380 0.13809410
H 1.0000000 1.12060730 -0.13587140 1.23788570
O 8.0000000 0.47646030 1.12250560 -0.29326770
C 6.0000000 2.51899170 -0.11453530 -0.40851670
P 15.0000000 3.66287370 1.04427990 0.40306920
H 1.0000000 -0.73416240 1.32494110 1.36932190
H 1.0000000 -3.44357350 1.15236320 0.18054420
H 1.0000000 -2.85251620 -2.11843670 -0.07224510
H 1.0000000 0.23016000 -3.20542820 -0.07478700
H 1.0000000 2.94030140 -1.11690270 -0.27971690
H 1.0000000 2.51567330 0.12060240 -1.47842780
H 1.0000000 -0.69084720 3.24592500 0.03128690
O 8.0000000 5.10189730 0.54718640 -0.18761750
O 8.0000000 3.61117860 0.46964500 1.92749770
H 1.0000000 5.64863940 1.30941430 -0.43158950
H 1.0000000 3.92909340 1.12181150 2.56971340
O 8.0000000 3.47913520 2.51863830 0.29728280
 $END
