 $BASIS GBASIS=N21 NGAUSS=3 $END
 $CONTRL SCFTYP=RHF DFTTYP=B3LYP MAXIT=60 MULT=1 ICHARG=0 $END
 $SYSTEM MEMDDI=1000 MWORDS=30 $END
 $SCF DIRSCF=.TRUE. $END
 $ELPOT  IEPOT=1 WHERE=PDC $END
 $PDC PTSEL=CHELPG CONSTR=CHARGE $END
 $DATA

C1
O 8.0000000 -1.2740541755 2.5286153286 0.0255506259
C 6.0000000 -0.7319900987 1.2718220660 0.4145541853
C 6.0000000 -1.6841612794 0.2197764186 -0.1388277322
H 1.0000000 -1.7375393123 0.3673558082 -1.2251173735
O 8.0000000 -2.9885415837 0.2932032308 0.4987091349
C 6.0000000 -1.1350028235 -1.1596725399 0.1662169114
H 1.0000000 -1.0516833824 -1.2744486470 1.2577857291
O 8.0000000 -1.9542168659 -2.2129142647 -0.4122142021
C 6.0000000 0.2496544141 -1.3063853067 -0.4504092947
H 1.0000000 0.1593403326 -1.1714829070 -1.5377883378
O 8.0000000 0.8305746710 -2.5872476750 -0.0969938787
C 6.0000000 1.1562587388 -0.2190058870 0.1246663489
H 1.0000000 1.2329879757 -0.3490882443 1.2094175761
O 8.0000000 0.5794917303 1.1016379365 -0.1936379635
C 6.0000000 2.5417155812 -0.2229620537 -0.4894331531
P 15.0000000 3.5660328114 1.1266004264 0.2113195205
H 1.0000000 -0.6511003325 1.1593282241 1.5087718483
H 1.0000000 -3.3080981646 1.2267854628 0.3622837978
H 1.0000000 -2.8890319632 -2.0144972079 -0.1296285403
H 1.0000000 0.1030533043 -3.2513749312 -0.2578755699
H 1.0000000 3.0290850557 -1.1788406588 -0.2865021456
H 1.0000000 2.4721398483 -0.0716320120 -1.5698336310
H 1.0000000 -0.6191765617 3.2417745487 0.2547819318
O 8.0000000 5.0710503183 0.3935553223 0.0171581609
O 8.0000000 3.1465528245 0.9563802745 1.8356088815
H 1.0000000 5.8241383890 1.0425352473 0.0522361416
H 1.0000000 3.3749792487 1.7554576093 2.3806603011
O 8.0000000 3.5622810995 2.6134346312 -0.2652393728
 $END
