 $BASIS GBASIS=N21 NGAUSS=3 $END
 $CONTRL SCFTYP=RHF DFTTYP=B3LYP MAXIT=60 MULT=1 ICHARG=0 $END
 $SYSTEM MEMDDI=1000 MWORDS=30 $END
 $SCF DIRSCF=.TRUE. $END
 $ELPOT  IEPOT=1 WHERE=PDC $END
 $PDC PTSEL=CHELPG CONSTR=CHARGE $END
 $DATA

C1
O 8.0000000 -1.4014998184 1.5271992249 0.5734888185
H 1.0000000 -0.3309512099 0.6181170272 0.6123319204
H 1.0000000 -1.5890876004 1.8959916441 1.4743897371
O 8.0000000 3.0651474694 3.3356165084 0.4387384907
H 1.0000000 3.2623777080 2.9795960794 1.3427053165
H 1.0000000 2.2803922810 4.0823603733 0.5286950760
O 8.0000000 -0.2723705908 3.2451400314 -0.8202594032
H 1.0000000 -0.7437636054 3.5557772316 -1.6347037448
H 1.0000000 -1.0168775024 2.3369218303 -0.0533602402
O 8.0000000 1.7224562235 1.7565830959 -0.9208043737
H 1.0000000 2.4462647335 2.3659471864 -0.3711101115
H 1.0000000 0.8646940112 2.3958360109 -1.0623385337
O 8.0000000 1.0984729266 4.8685915908 0.4753037733
H 1.0000000 0.4009966355 4.2394140035 -0.0806653281
H 1.0000000 1.2679241306 5.6909696570 -0.0520375464
O 8.0000000 0.6035589468 0.0612393292 0.4974814793
H 1.0000000 0.4026775613 -0.7867025504 0.0251759649
H 1.0000000 1.3527578001 0.9246614262 -0.3108110950
 $END
