 $BASIS GBASIS=N31 NGAUSS=6 NDFUNC=1 NPFUNC=1 $END
 $CONTRL SCFTYP=RHF RUNTYP=OPTIMIZE DFTTYP=B3LYP MAXIT=60 MULT=1 ICHARG=0 $END 
 $SYSTEM MEMDDI=1000 MWORDS=30 $END
 $STATPT NSTEP=999 $END
 $SCF DIRSCF=.TRUE. $END
 $DATA

C1
C 6.0         0.74380       -0.98760       -0.43440
C 6.0        -0.75050       -0.95040        0.21710
C 6.0         1.66860        0.03450        0.35350
C 6.0        -1.29850        0.52990        0.13650
C 6.0         3.13260       -0.05740       -0.13380
C 6.0        -2.84170        0.76080        0.45550
C 6.0         3.69170       -1.48300        0.10260
C 6.0        -3.68140       -0.27530       -0.36900
C 6.0         1.37840       -2.42440       -0.38960
C 6.0         1.08920        1.45330        0.33750
C 6.0        -0.35070        1.51470        0.85510
C 6.0        -1.72770       -1.88680       -0.54630
C 6.0         4.22640        0.85870        0.45280
C 6.0         2.88140       -2.48300       -0.73220
C 6.0        -3.19800       -1.72140       -0.15290
C 6.0         5.13790       -1.29300       -0.36710
C 6.0        -5.24540       -0.10630       -0.26730
C 6.0         0.70040       -0.60750       -1.95520
C 6.0        -3.23040        2.20310       -0.03240
C 6.0        -0.69640       -1.46020        1.68850
C 6.0         5.54140        0.06960        0.21390
C 6.0        -3.14580        0.69870        1.97090
C 6.0         3.71540       -1.94090        1.58400
C 6.0        -5.63970        1.37950       -0.06220
C 6.0        -4.62170        2.33790       -0.65800
C 6.0         4.32140        2.23320       -0.20690
C 6.0        -5.89580       -0.94290        0.85360
C 6.0        -5.87650       -0.58870       -1.60080
C 6.0         5.46350        3.04280        0.40250
C 6.0         4.50820        2.09220       -1.71580
H 1.0         1.68290       -0.25520        1.40840
H 1.0        -1.23790        0.79940       -0.92520
H 1.0         3.12130        0.09820       -1.21320
H 1.0        -3.43480       -0.05390       -1.42090
H 1.0         0.84420       -3.09010       -1.07900
H 1.0         1.25940       -2.87330        0.59770
H 1.0         1.14160        1.88440       -0.66820
H 1.0         1.68550        2.09840        0.99130
H 1.0        -0.33650        1.32310        1.93270
H 1.0        -0.70280        2.54520        0.73710
H 1.0        -1.44230       -2.93530       -0.39800
H 1.0        -1.67630       -1.70630       -1.62360
H 1.0         4.06730        0.98490        1.53140
H 1.0         3.24910       -3.50310       -0.56420
H 1.0         3.02230       -2.29100       -1.80230
H 1.0        -3.78290       -2.40740       -0.77660
H 1.0        -3.35600       -2.04580        0.87940
H 1.0         5.18890       -1.25040       -1.46230
H 1.0         5.81020       -2.09180       -0.03750
H 1.0         1.68380       -0.64090       -2.43000
H 1.0        0.09220       -1.30960       -2.53220
H 1.0         0.31530        0.39610       -2.14280
H 1.0        -2.51740        2.56690       -0.78340
H 1.0        -3.14880        2.91000        0.80410
H 1.0        -1.67510       -1.50270        2.15930
H 1.0        -0.32810       -2.48740        1.75180
H 1.0        -0.07020       -0.84680        2.33840
H 1.0         6.03630       -0.08060        1.18220
H 1.0         6.29140        0.54060       -0.42480
H 1.0        -3.24690       -0.31850        2.34660
H 1.0        -2.38070        1.20230        2.56720
H 1.0        -4.08300        1.20150        2.22380
H 1.0         2.71670       -2.05670        2.01220
H 1.0         4.21310       -2.91430        1.67060
H 1.0         4.25640       -1.24660        2.23370
H 1.0        -5.76120        1.61020        1.00200
H 1.0        -6.62270        1.57860       -0.50820
H 1.0        -4.96990        3.37090       -0.54050
H 1.0        -4.54940        2.16480       -1.73900
H 1.0         3.40510        2.80320       -0.03460
H 1.0        -6.97590       -0.75770        0.89860
H 1.0        -5.76480       -2.01770        0.68970
H 1.0        -5.48870       -0.70190        1.83830
H 1.0        -5.65580       -1.64310       -1.79540
H 1.0        -6.96780       -0.48450       -1.58320
H 1.0        -5.50610       -0.00760       -2.45250
H 1.0         6.45180        2.64190        0.15960
H 1.0         5.43650        4.07300        0.02930
H 1.0         5.37160        3.08940        1.49300
H 1.0         5.29250        1.39800       -2.02330

H 1.0         4.77200        3.06670       -2.14570
H 1.0         3.57770        1.80290       -2.21420
 $END
