 $BASIS GBASIS=N31 NGAUSS=6 NDFUNC=1 NPFUNC=1 $END
 $CONTRL SCFTYP=RHF RUNTYP=OPTIMIZE DFTTYP=B3LYP MAXIT=60 MULT=1 ICHARG=0 $END 
 $SYSTEM MEMDDI=1000 MWORDS=30 $END
 $STATPT NSTEP=999 $END
 $SCF DIRSCF=.TRUE. $END
 $DATA

C1
C 6.0000000 -0.91090 0.00010 -0.01880
C 6.0000000 -0.21620 -1.20070 -0.01090
C 6.0000000 1.16510 -1.19810 0.00470
C 6.0000000 1.85530 -0.00010 0.01250
C 6.0000000 1.16520 1.19800 0.00500
C 6.0000000 -0.21610 1.20080 -0.01100
O 8.0000000 -2.26980 0.00010 -0.03980
H 1.0000000 -0.75490 -2.13680 -0.01650
H 1.0000000 1.70640 -2.13270 0.01130
H 1.0000000 2.93520 -0.00010 0.02470
H 1.0000000 1.70660 2.13250 0.01140
H 1.0000000 -0.75470 2.13690 -0.01680
H 1.0000000 -2.67670 -0.00190 0.83740
 $END
