 $BASIS GBASIS=N31 NGAUSS=6 NDFUNC=1 NPFUNC=1 $END
 $CONTRL SCFTYP=RHF RUNTYP=OPTIMIZE DFTTYP=B3LYP MAXIT=60 MULT=1 ICHARG=0 $END 
 $SYSTEM MEMDDI=1000 MWORDS=30 $END
 $STATPT NSTEP=999 $END
 $SCF DIRSCF=.TRUE. $END
 $DATA

C1
C 6.0000000 1.55762 0.15240 0.35402
C 6.0000000 0.56510 0.09493 -0.87137
C 6.0000000 2.00643 1.65064 0.25209
C 6.0000000 2.74227 -0.82090 0.40226
C 6.0000000 -0.12109 1.50887 -0.81399
C 6.0000000 0.57409 2.17770 0.42702
C 6.0000000 3.13893 2.13750 1.20295
C 6.0000000 3.90695 -0.40500 -0.49279
C 6.0000000 -1.63524 1.29541 -0.63471
C 6.0000000 4.49756 -1.73531 -0.95200
C 6.0000000 -2.61965 2.14037 -1.50348
C 6.0000000 -3.16682 -0.79681 -0.62571
C 6.0000000 -4.02180 -0.00299 0.35630
C 6.0000000 -4.90950 -1.05654 1.00405
C 6.0000000 0.44481 -0.92253 2.53406
C 6.0000000 -0.39144 -2.30747 -1.12805
C 6.0000000 2.97911 3.63191 1.52205
C 6.0000000 4.81458 -1.72250 -2.44252
C 6.0000000 -2.05332 3.52898 -1.84644
C 6.0000000 -4.98800 -0.86134 2.51582
H 1.0000000 3.76109 1.89022 3.05449
H 1.0000000 -3.49623 2.04091 -3.26126
O 8.0000000 3.42178 -3.90508 -0.98798
O 8.0000000 -4.51166 -3.44014 1.13424
C 6.0000000 4.51180 1.91522 0.52263
C 6.0000000 4.92988 0.45926 0.26234
C 6.0000000 -3.95852 2.35208 -0.73765
C 6.0000000 -4.79179 1.11655 -0.35499
O 8.0000000 3.16643 1.42901 2.43882
O 8.0000000 -2.89439 1.48103 -2.74105
C 6.0000000 -0.60817 -0.84823 -0.89359
C 6.0000000 3.40424 -2.72628 -0.66923
C 6.0000000 -4.19497 -2.34316 0.70038
O 8.0000000 2.36941 -2.13014 -0.02397
O 8.0000000 -3.13257 -2.12769 -0.11352
C 6.0000000 -1.78767 -0.21240 -0.74572
C 6.0000000 0.69989 0.22248 1.62469
C 6.0000000 0.16952 1.45341 1.68634
H 1.0000000 1.12598 0.00634 -1.81126
H 1.0000000 2.32458 1.91196 -0.76915
H 1.0000000 3.08777 -0.93652 1.43725
H 1.0000000 0.13333 2.04991 -1.73155
H 1.0000000 3.55214 0.14386 -1.37339
H 1.0000000 -1.86741 1.58809 0.39274
H 1.0000000 -3.62543 -0.84581 -1.62086
H 1.0000000 -3.40998 0.43956 1.15264
H 1.0000000 0.45819 3.26131 0.46493
H 1.0000000 -0.52489 1.81361 2.43027
H 1.0000000 1.28471 -1.06553 3.21916
H 1.0000000 -0.46041 -0.75862 3.12848
H 1.0000000 0.29653 -1.84672 1.96903
H 1.0000000 -0.14577 -2.82033 -0.19472
H 1.0000000 -1.26930 -2.79096 -1.56599
H 1.0000000 0.42368 -2.46239 -1.84241
H 1.0000000 4.54455 2.46646 -0.42590
H 1.0000000 5.29479 2.35344 1.15708
H 1.0000000 2.08065 3.81385 2.12244
H 1.0000000 3.81658 3.99626 2.12831
H 1.0000000 2.92493 4.23667 0.61141
H 1.0000000 5.18236 -0.01538 1.21987
H 1.0000000 5.86554 0.48662 -0.31088
H 1.0000000 5.37867 -2.01233 -0.36307
H 1.0000000 5.51729 -0.92127 -2.69111
H 1.0000000 5.25366 -2.67521 -2.75595
H 1.0000000 3.90535 -1.57643 -3.03914
H 1.0000000 -3.75025 2.91829 0.18072
H 1.0000000 -4.61545 2.99116 -1.34353
H 1.0000000 -1.23536 3.46183 -2.57156
H 1.0000000 -2.81433 4.15136 -2.33260
H 1.0000000 -1.70208 4.05657 -0.95450
H 1.0000000 -5.28148 0.72260 -1.25438
H 1.0000000 -5.60176 1.46113 0.30110
H 1.0000000 -5.90517 -1.08608 0.55066
H 1.0000000 -5.37645 0.13008 2.76847
H 1.0000000 -5.63595 -1.61450 2.97517
H 1.0000000 -3.99864 -0.96585 2.98060
 $END
