 $BASIS GBASIS=N31 NGAUSS=6 NDFUNC=1 NPFUNC=1 $END
 $CONTRL SCFTYP=RHF RUNTYP=OPTIMIZE DFTTYP=B3LYP MAXIT=60 MULT=1 ICHARG=0 $END 
 $SYSTEM MEMDDI=1000 MWORDS=40 $END
 $STATPT NSTEP=999 $END
 $SCF DIRSCF=.TRUE. $END

 $DATA

C1
C      6.0      0.0978641264    3.1463086191   -1.5042863733 
C      6.0     -0.4491694870    4.0070703318   -2.4591187566 
C      6.0      0.4217600251    4.5953462688   -3.3746238418 
C      6.0      1.7901296181    4.3474085302   -3.2537697816 
C      6.0      2.3029620866    3.4751994028   -2.2760903787 
C      6.0      1.4410239082    2.7824994082   -1.4392134704 
O      8.0      1.9098694737    1.6782666910   -0.7321875861 
O      8.0      3.6477826202    3.2296412788   -2.2505228616 
O      8.0      2.6807105410    4.8515936049   -4.1633577524 
C      6.0     -1.9179675703    3.9800922196   -2.7514464854 
O      8.0     -2.2321081133    3.7615686651   -3.9181416347 
O      8.0     -2.8141594434    4.3499410630   -1.7753516785 
C      6.0     -2.9676200349    3.4602541958   -0.6672146418 
O      8.0     -1.8538058520    3.7690614978    0.1892867432 
C      6.0     -1.6811196565    2.8965983289    1.2981509128 
C      6.0     -2.9094782462    3.0114940084    2.2409440568 
C      6.0     -4.0302382175    2.3392748684    1.3037024825 
C      6.0     -4.2674698972    3.5113347268    0.2668272733 
O      8.0     -5.3077653329    4.3548327537    0.8694964019 
O      8.0     -5.2885398235    1.9232159639    1.8554078975 
C      6.0     -6.6360682205    4.2192657826    0.6859784098 
C      6.0     -6.9309608071    4.4016530683   -0.7336007323 
O      8.0     -7.4800643270    4.2671780620    1.5626569678 
C      6.0     -6.3750315493    3.3822815165   -1.6600024755 
C      6.0     -5.5399270244    3.9324675012   -2.7957704319 
C      6.0     -5.2719990226    5.2522725483   -2.9283974225 
C      6.0     -5.7553839421    6.1991028623   -1.9497507815 
C      6.0     -6.8486912227    5.8363364639   -1.0811690262 
O      8.0     -4.7883962723    6.9835588273   -1.3525303348 
O      8.0     -4.4515711650    5.7791833390   -3.9001234376 
O      8.0     -4.9592564495    3.0140272041   -3.6457478206 
C      6.0     -6.3726752177    1.4230658584    1.1744936901 
C      6.0     -6.5145724029    1.0642139730   -0.3062350447 
O      8.0     -7.3499024063    1.0847577912    1.8485383768 
C      6.0     -6.9077697090   -0.3135537112   -0.4197024133 
C      6.0     -7.4114139350   -0.8575514469   -1.6000572299 
C      6.0     -7.5122659519   -0.0716109937   -2.7192813918 
C      6.0     -7.1569372672    1.2671069492   -2.6526718408 
C      6.0     -6.6416253155    1.8959551261   -1.4763270638 
O      8.0     -7.3428694933    1.9757864116   -3.8262895002 
O      8.0     -7.9984546375   -0.5615572791   -3.9015614586 
O      8.0     -7.8814556614   -2.1349722873   -1.6891332355 
O      8.0     -2.4569773450    2.7876698645    3.5854019562 
C      6.0     -0.2923271885    3.1853102822    1.8292037514 
O      8.0      0.0838244536    2.2423606712    2.8510030826 
C      6.0     -1.8488279778    3.9867076000    4.0114107261 
C      6.0     -0.8378353408    3.9874078976    5.1025777700 
O      8.0     -2.0130829779    5.0772776558    3.4626634294 
C      6.0      0.2939419316    4.9039679187    4.9809967288 
C      6.0      0.4852447158    5.7357321343    6.0980439797 
C      6.0     -0.2469173584    5.5560029604    7.2721556393 
C      6.0     -1.1569908205    4.5189937571    7.4059047009 
C      6.0     -1.4601542242    3.7126516010    6.3287607037 
O      8.0     -1.8574230854    4.3729108167    8.5656413989 
O      8.0     -0.1057606442    6.4478503469    8.3039726270 
O      8.0      1.3483609144    6.8036794699    6.1320254260 
C      6.0      1.3216767192    4.9047544166    3.8384128136 
C      6.0      1.8753619079    3.7053254448    3.3128182882 
C      6.0      3.3753447531    4.8111147302    1.7770102092 
C      6.0      2.8721302887    6.0106910393    2.2403366381 
C      6.0      1.8738874514    6.0593862690    3.2380227504 
C      6.0      1.2254159281    2.4197441006    3.5719990671 
O      8.0      1.6958376852    1.5895606665    4.3297811113 
C      6.0      2.8960429257    3.6465824683    2.3263837558 
O      8.0      4.2856779482    4.8292363104    0.7621620394 
O      8.0      3.3387315706    7.1881467889    1.7116859542 
O      8.0      1.4498299417    7.3208299631    3.5907796024 
O      8.0     -0.5241259173   -3.3647756057   -6.2240050124 
O      8.0      1.6182283969   -1.8123948545   -5.4795130558 
C      6.0     -1.3670953216   -2.2687310471   -5.7681525526 
C      6.0     -0.6651190831   -1.0499757182   -5.1134504143 
C      6.0      0.6581950879    0.8777425337   -5.6179427980 
C      6.0      1.8038014072    0.7233425785   -4.6979534363 
C      6.0      1.0322278742   -0.0859850170   -3.5325241500 
O      8.0      0.0183524262   -1.1250977111   -3.8519650922 
C      6.0      0.4702320978   -0.7012918667   -5.9654399826 
O      8.0      0.2418937526    0.9148281430   -2.8984599393 
O      8.0      2.8477330529    0.1521555547   -5.5992575471 
O      8.0      1.0751924464    2.0184236456   -6.4358304408 
C      6.0      0.6203213078    2.5262998109   -7.5829140998 
C      6.0     -0.3921113588    1.6647526844   -8.1065801591 
C      6.0     -1.6936680190    2.0452020837   -7.6521484607 
C      6.0     -2.7376442257    1.1661450116   -7.7749518020 
C      6.0     -2.5007157645   -0.0126135920   -8.4389711817 
C      6.0     -1.2153116818   -0.3393472816   -8.9373638249 
C      6.0     -0.0383621387    0.4580609779   -8.7356392661 
O      8.0     -3.9554812423    1.3666049554   -7.2015820016 
O      8.0     -3.4922665317   -0.9622178610   -8.5206336942 
O      8.0     -1.1863591162   -1.5745911860   -9.5489303740 
C      6.0      3.0405079074    0.7905073522   -6.8268031992 
C      6.0      2.6758399082    0.0100067769   -8.1027337694 
O      8.0      3.6329830548    1.8604670376   -6.9110115523 
C      6.0      1.4588035124   -0.0682718988   -8.9743506611 
C      6.0      1.6590318021   -0.8851391810  -10.1300611024 
C      6.0      2.8293174508   -1.6130775562  -10.3751969225 
C      6.0      3.9232109803   -1.5092732159   -9.5509141407 
C      6.0      3.8680102857   -0.6861943237   -8.4492741352 
O      8.0      0.6966421225   -1.1212881582  -11.0873072188 
O      8.0      2.8723677307   -2.5323327295  -11.3945159784 
O      8.0      5.0337998131   -2.2620716653   -9.7921531659 
C      6.0     -0.6807580681    0.4662937424   -2.0349636823 
C      6.0     -0.1070429236    0.1372172270   -0.7202677280 
O      8.0     -1.8855123031    0.5757144129   -2.2148580839 
C      6.0     -0.9364988687   -0.7121246630    0.0490061791 
C      6.0     -0.5340374152   -1.1059187929    1.3056379599 
C      6.0      0.7185042216   -0.7454930207    1.7561976440 
C      6.0      1.5240064425    0.1280586416    1.0168357069 
C      6.0      1.0924063638    0.6775029329   -0.1989502767 
O      8.0      2.7341857920    0.4688856787    1.5592491098 
O      8.0      1.1716854590   -1.2026737687    2.9618104334 
O      8.0     -1.3436938114   -1.8441794495    2.1122190103 
C      6.0     -1.6148719356   -5.0277401638   -3.3351092538 
C      6.0     -1.1427646543   -4.0006997608   -2.5360797726 
C      6.0      0.1087150867   -3.4475025590   -2.7676410118 
C      6.0     -0.8178151389   -5.5611227542   -4.3430515227 
C      6.0      0.4267240621   -4.9783025241   -4.6598983830 
C      6.0      0.8017084398   -3.7872681672   -3.9451560211 
C      6.0      1.1987593496   -5.3991388974   -5.8466234633 
C      6.0      1.4299909921   -4.4933965881   -6.8850644451 
C      6.0      2.5925828382   -4.5948344871   -7.6651991565 
C      6.0      3.3453962752   -5.7538973712   -7.5980169193 
C      6.0      2.8687949488   -6.8237877967   -6.8584342188 
C      6.0      1.8112409346   -6.6436606151   -5.9726148639 
O      8.0     -1.4107280846   -6.5334209161   -5.1132924683 
O      8.0     -2.9121806035   -5.4414018523   -3.1822227223 
O      8.0     -1.9769636793   -3.4212610343   -1.6208883763 
O      8.0      1.3281237462   -7.7215864133   -5.2836673627 
O      8.0      3.4286409725   -8.0636183975   -6.9856110683 
O      8.0      4.5095180978   -5.9044314410   -8.2908064753 
C      6.0      1.8483504857   -2.7951697378   -4.4857201490 
C      6.0      0.4275242990   -3.4330448951   -7.1855389156 
O      8.0      2.9849157045   -2.9262486953   -4.0349336950 
O      8.0      0.5472650677   -2.7279224372   -8.1554894777 
O      8.0      0.9067795184    3.6088938630   -8.0550215539 
H      1.0     -0.5801222336    2.5711977103   -0.9165736920 
H      1.0      0.0259522664    5.1839873174   -4.1983559079 
H      1.0      4.0104803575    3.7521414807   -2.9982204328 
H      1.0      2.2092998508    5.0366853863   -4.9996727458 
H      1.0     -2.8748520326    2.4336577322   -1.0372758284 
H      1.0     -1.6265112020    1.8622198883    0.9463222436 
H      1.0     -3.3246269159    4.0153952155    2.3094504785 
H      1.0     -3.6290734424    1.4342157901    0.8280902360 
H      1.0     -3.7346955827    4.4129369428    0.5887180559 
H      1.0     -7.0816878630    6.5420666625   -0.2823657562 
H      1.0     -3.8900392312    6.6267259012   -1.4981234607 
H      1.0     -4.3844932318    6.7377533961   -3.7432888235 
H      1.0     -5.6857446243    2.4376646433   -3.9454514142 
H      1.0     -6.8902942921   -0.9468369424    0.4684490363 
H      1.0     -7.8299355805    1.3681047248   -4.4265780136 
H      1.0     -8.2014291127   -1.5033648217   -3.7215561237 
H      1.0     -8.1911664317   -2.4099221820   -0.8064185626 
H      1.0     -0.2567377780    4.2319780515    2.1245876258 
H      1.0      0.4432305104    3.1087346301    1.0344418865 
H      1.0     -2.2902771769    3.0148492772    6.3978713739 
H      1.0     -1.5592101361    5.1186358513    9.1258738397 
H      1.0      0.5130305610    7.1199884705    7.9454303657 
H      1.0      1.4038706466    7.1520982846    5.2155952340 
H      1.0      3.2574629718    2.6909596945    1.9621127248 
H      1.0      4.3408765172    3.9392195438    0.3572773092 
H      1.0      4.0351449265    6.9108921787    1.0753803081 
H      1.0      1.9258786633    7.9185358947    2.9680186110 
H      1.0     -2.0613448826   -2.6966503665   -5.0414835096 
H      1.0     -1.9574515635   -1.9541726385   -6.6259027466 
H      1.0     -1.4451323421   -0.2861633630   -5.0229661730 
H      1.0     -0.2368822368    1.2938792471   -5.1435600312 
H      1.0      2.2108399915    1.6625112408   -4.3169090941 
H      1.0      1.7636845830   -0.5028962896   -2.8320077084 
H      1.0      0.3318658552   -0.9027897882   -6.9933677724 
H      1.0     -1.8258585752    2.9831222883   -7.1118065244 
H      1.0     -3.9298268831    2.1847054153   -6.6633977189 
H      1.0     -4.2700706812   -0.5531865415   -8.0821547927 
H      1.0     -2.0461363620   -2.0009231282   -9.3322387788 
H      1.0      4.7621134619   -0.5936720476   -7.8316397865 
H      1.0     -0.0773234502   -1.4571463696  -10.5840277060 
H      1.0      1.9633958575   -2.5114771899  -11.7628513488 
H      1.0      4.8461483865   -2.6995522322  -10.6491961573 
H      1.0     -1.8885247519   -1.0627384710   -0.3472282257 
H      1.0      2.7461845515    0.0288292097    2.4406445777 
H      1.0      0.4635940595   -1.7809075193    3.3116440304 
H      1.0     -2.0692184837   -1.2601553986    2.4034277469 
H      1.0      0.4476813623   -2.6360264736   -2.1330160478 
H      1.0      2.8833410547   -3.7843627440   -8.3229089980 
H      1.0     -0.7173623670   -6.9301083754   -5.6747501045 
H      1.0     -3.0254595977   -6.1238255190   -3.8780730897 
H      1.0     -2.8403560984   -3.8625129007   -1.7664248729 
H      1.0      1.8647562074   -8.4801227905   -5.6001082711 
H      1.0      4.1257237698   -7.9471870623   -7.6659276220 
H      1.0      4.9004642047   -5.0161040578   -8.4142921640 
 $END


