 $BASIS GBASIS=N31 NGAUSS=6 NDFUNC=1 NPFUNC=1 $END
 $CONTRL SCFTYP=RHF RUNTYP=OPTIMIZE DFTTYP=B3LYP MAXIT=60 MULT=1 ICHARG=0 $END 
 $SYSTEM MEMDDI=1000 MWORDS=30 $END
 $STATPT NSTEP=999 $END
 $SCF DIRSCF=.TRUE. $END
 $DATA

C1
C 6.0000000 2.41620 -1.28780 -0.23960
C 6.0000000 2.78670 -2.70490 0.20590
C 6.0000000 0.07820 -1.82210 -0.25430
C 6.0000000 3.17230 0.98520 -0.15570
C 6.0000000 1.73500 -3.68770 -0.31800
C 6.0000000 0.35480 -3.26060 0.19060
C 6.0000000 -2.83310 0.45190 0.25160
C 6.0000000 -3.00500 1.88690 -0.25320
C 6.0000000 -5.19820 0.06150 0.17630
C 6.0000000 -4.37150 2.41650 0.19270
C 6.0000000 -5.46520 1.48090 -0.33160
C 6.0000000 4.75800 2.63210 -1.17470
C 6.0000000 5.46240 1.41080 0.76040
C 6.0000000 5.97670 3.28360 -1.20720
C 6.0000000 6.68120 2.06230 0.72800
C 6.0000000 6.93840 2.99860 -0.25600
C 6.0000000 -1.27300 -1.36720 0.30070
C 6.0000000 -6.25260 -0.89050 -0.39210
H 1.0000000 4.78330 -2.46650 -0.03430
H 1.0000000 2.89680 -5.33520 -0.12470
H 1.0000000 -0.52990 -5.05750 -0.10890
H 1.0000000 -1.07840 2.43090 0.05270
H 1.0000000 -3.90920 4.37310 -0.05020
H 1.0000000 -6.97420 2.81860 -0.14530
H 1.0000000 -6.70870 -2.84800 -0.14440
C 6.0000000 4.50090 1.69550 -0.19110
O 8.0000000 4.06880 -3.05140 -0.32150
O 8.0000000 2.03270 -5.00310 0.15460
O 8.0000000 -0.64320 -4.12820 -0.35100
O 8.0000000 -1.97260 2.71150 0.29100
O 8.0000000 -4.57130 3.72890 -0.33610
O 8.0000000 -6.73930 1.92470 0.13920
O 8.0000000 -6.07320 -2.19130 0.17170
O 8.0000000 3.36220 -0.35840 0.29250
O 8.0000000 -1.58420 -0.06860 -0.20810
O 8.0000000 1.10940 -0.96530 0.24040
O 8.0000000 -3.89950 -0.35810 -0.24720
C 6.0000000 2.26530 1.68670 0.76730
N 7.0000000 1.56530 2.22820 1.47950
H 1.0000000 2.73810 0.97670 -1.15540
H 1.0000000 -2.85070 0.44520 1.34140
H 1.0000000 2.42700 -1.23440 -1.32830
H 1.0000000 2.81570 -2.74850 1.29460
H 1.0000000 0.05840 -1.77580 -1.34310
H 1.0000000 1.74130 -3.68180 -1.40800
H 1.0000000 0.33350 -3.31570 1.27900
H 1.0000000 -2.04680 -2.07180 -0.00410
H 1.0000000 -1.22460 -1.32900 1.38900
H 1.0000000 4.00500 2.85800 -1.91520
H 1.0000000 5.26160 0.67900 1.52890
H 1.0000000 6.17770 4.01510 -1.97590
H 1.0000000 7.43220 1.84010 1.47160
H 1.0000000 -2.94690 1.89960 -1.34160
H 1.0000000 7.89090 3.50710 -0.28180
H 1.0000000 -5.24690 0.04980 1.26510
H 1.0000000 -4.41120 2.45200 1.28140
H 1.0000000 -5.45790 1.48510 -1.42150
H 1.0000000 -7.24750 -0.52090 -0.14360
H 1.0000000 -6.14570 -0.94610 -1.47540
 $END
