 $BASIS GBASIS=N31 NGAUSS=6 NDFUNC=1 NPFUNC=1 $END
 $CONTRL SCFTYP=RHF RUNTYP=OPTIMIZE DFTTYP=B3LYP MAXIT=60 MULT=1 ICHARG=0 $END 
 $SYSTEM MEMDDI=1000 MWORDS=30 $END
 $STATPT NSTEP=999 $END
 $SCF DIRSCF=.TRUE. $END
 $DATA

C1
C 6.0000000 1.04330 -0.02530 -0.54890
C 6.0000000 2.39760 -0.69660 -0.31140
C 6.0000000 0.03710 -2.31090 -0.62640
C 6.0000000 -5.34520 1.45480 -0.13540
C 6.0000000 4.36920 0.32910 1.42470
C 6.0000000 5.61310 1.37660 -0.61710
H 1.0000000 -0.00440 -0.17580 1.88140
C 6.0000000 -2.55200 -1.20110 0.19840
C 6.0000000 -1.55440 1.07370 0.29630
C 6.0000000 -3.89070 -0.66570 -0.31410
O 8.0000000 0.05500 -1.02250 1.41820
C 6.0000000 4.44510 0.60830 -0.05430
C 6.0000000 -1.43100 -0.30840 -0.34880
C 6.0000000 -3.98350 0.81230 -0.07120
C 6.0000000 3.49580 0.18320 -0.85070
C 6.0000000 -2.96680 1.56960 0.19000
C 6.0000000 -0.07160 -0.91860 -0.00140
H 1.0000000 -1.52750 -0.22090 -1.43100
H 1.0000000 -2.54070 -1.17690 1.28810
H 1.0000000 -2.40880 -2.22390 -0.15000
H 1.0000000 -1.27260 1.00830 1.34730
H 1.0000000 -0.88760 1.77040 -0.21170
H 1.0000000 1.02080 0.93770 -0.03890
H 1.0000000 0.89550 0.12620 -1.61810
H 1.0000000 -0.05950 -2.23170 -1.70920
H 1.0000000 1.00550 -2.74570 -0.37890
H 1.0000000 -0.75730 -2.94730 -0.23640
H 1.0000000 -3.97300 -0.86200 -1.38320
H 1.0000000 -4.70470 -1.16940 0.20730
H 1.0000000 -3.14610 2.62380 0.34110
H 1.0000000 2.54540 -0.84820 0.75780
H 1.0000000 2.42010 -1.65970 -0.82140
H 1.0000000 3.50020 0.46330 -1.89370
H 1.0000000 -5.80250 1.43650 0.85390
H 1.0000000 -5.24430 2.48730 -0.47000
H 1.0000000 -5.97350 0.90540 -0.83640
H 1.0000000 4.77950 -0.65980 1.62930
H 1.0000000 4.94420 1.08020 1.96620
H 1.0000000 3.32890 0.36490 1.74830
H 1.0000000 5.49460 1.47920 -1.69580
H 1.0000000 5.65170 2.36540 -0.16010
H 1.0000000 6.53770 0.84080 -0.40250
 $END
