 $BASIS GBASIS=N31 NGAUSS=6 NDFUNC=1 NPFUNC=1 $END
 $CONTRL SCFTYP=RHF RUNTYP=OPTIMIZE DFTTYP=B3LYP MAXIT=60 MULT=1 ICHARG=0 $END 
 $SYSTEM MEMDDI=1000 MWORDS=30 $END
 $STATPT NSTEP=999 $END
 $SCF DIRSCF=.TRUE. $END
 $DATA

C1
C 6.0000000 3.58349 -1.23087 -0.66372
C 6.0000000 3.40143 -2.73863 -0.73239
C 6.0000000 4.43468 -0.74062 0.53309
C 6.0000000 7.12790 2.84500 0.00000
C 6.0000000 3.77101 -5.62888 -0.24507
C 6.0000000 7.12790 3.84500 0.00000
C 6.0000000 5.32998 -3.23303 2.18339
H 1.0000000 8.65652 2.80566 1.29586
H 1.0000000 3.43470 -7.49552 0.12210
H 1.0000000 8.50830 5.27380 -0.19872
O 8.0000000 0.11552 -2.07920 -1.09710
O 8.0000000 5.58948 0.84597 -1.46998
C 6.0000000 5.91121 -1.18928 0.67910
C 6.0000000 7.48643 -4.37664 -0.17190
C 6.0000000 6.29458 -5.28832 -0.52391
O 8.0000000 7.70036 2.61313 1.41506
O 8.0000000 4.17581 -6.98843 -0.24673
O 8.0000000 8.52961 4.29876 -0.21455
C 6.0000000 5.52257 2.64035 0.09492
C 6.0000000 5.14413 1.31815 -0.43888
O 8.0000000 4.45610 0.70008 0.54539
C 6.0000000 1.33330 -1.99708 -1.07886
C 6.0000000 2.12905 -0.84326 -0.58960
C 6.0000000 4.88919 -4.74152 -0.74526
C 6.0000000 6.23805 -2.57342 1.18914
O 8.0000000 2.21417 -2.95960 -1.48313
C 6.0000000 4.60625 -3.51041 -1.23341
C 6.0000000 7.33569 -3.10354 0.61493
C 6.0000000 4.50702 3.42146 0.52951
C 6.0000000 1.54533 0.28361 -0.15662
H 1.0000000 3.95647 -0.85669 -1.62472
H 1.0000000 3.17104 -3.10119 0.27549
H 1.0000000 3.91216 -0.99856 1.45940
H 1.0000000 5.39650 -2.91924 -1.69333
H 1.0000000 6.35676 -1.10236 -0.32490
H 1.0000000 6.45911 -0.46876 1.29828
H 1.0000000 4.66121 4.41027 0.94474
H 1.0000000 3.47548 3.08367 0.48369
H 1.0000000 2.11554 1.13811 0.18583
H 1.0000000 0.46447 0.39631 -0.14105
H 1.0000000 7.12790 2.22500 0.00000
H 1.0000000 8.08213 -2.38815 0.25695
H 1.0000000 8.27871 -4.98129 0.28552
H 1.0000000 7.90290 -4.04287 -1.13508
H 1.0000000 3.48856 -5.34947 0.77334
H 1.0000000 2.90084 -5.55295 -0.90529
H 1.0000000 6.24944 -5.98644 0.32040
H 1.0000000 6.57054 -5.88608 -1.40202
H 1.0000000 5.51076 -2.78979 3.17027
H 1.0000000 4.27187 -3.07605 1.97631
H 1.0000000 5.49346 -4.30950 2.26321
H 1.0000000 6.85208 4.48702 0.86109
H 1.0000000 6.65880 4.36842 -0.85473
 $END
