 $BASIS GBASIS=N31 NGAUSS=6 NDFUNC=1 NPFUNC=1 $END
 $CONTRL SCFTYP=RHF RUNTYP=OPTIMIZE DFTTYP=B3LYP MAXIT=60 MULT=1 ICHARG=0 $END 
 $SYSTEM MEMDDI=1000 MWORDS=30 $END
 $STATPT NSTEP=999 $END
 $SCF DIRSCF=.TRUE. $END
 $DATA

C1
C 6.0000000 -7.26770 0.62810 -0.55290
C 6.0000000 4.74640 1.24220 1.35280
C 6.0000000 -0.27050 0.87720 -1.01880
C 6.0000000 -3.34330 2.42880 0.14730
H 1.0000000 8.19180 -0.35140 -1.16110
C 6.0000000 -5.62870 -0.89480 -1.66800
C 6.0000000 -5.88680 -0.94660 0.81330
C 6.0000000 -4.78730 0.11590 0.91180
C 6.0000000 -0.80940 -1.64250 0.33460
C 6.0000000 0.33030 1.79380 1.24290
C 6.0000000 1.78370 1.77290 0.76420
C 6.0000000 3.89150 1.06320 -0.96310
C 6.0000000 5.06850 0.49590 -1.76090
C 6.0000000 5.92360 -1.07000 -0.00310
C 6.0000000 2.26400 -2.05320 0.81360
O 8.0000000 7.39900 -0.12670 -1.66720
C 6.0000000 -6.62590 -0.76020 -0.51470
C 6.0000000 -2.77100 1.06560 -0.24620
C 6.0000000 6.25450 0.15570 -0.85950
O 8.0000000 -3.11000 -1.21710 -0.24630
O 8.0000000 -4.60240 0.09080 -1.52610
C 6.0000000 3.73570 -2.07290 0.52480
C 6.0000000 -1.88290 0.49260 0.86780
C 6.0000000 -2.13480 -1.01840 0.78740
C 6.0000000 0.21690 -0.64500 0.92000
C 6.0000000 2.44130 0.41200 1.01140
C 6.0000000 1.63580 -0.73320 0.35770
C 6.0000000 4.44890 -0.96210 0.32460
C 6.0000000 -0.41050 0.68590 0.49280
C 6.0000000 3.85110 0.41930 0.42420
C 6.0000000 -3.87240 -0.00240 -0.30590
H 1.0000000 -7.39950 -1.52200 -0.61120
H 1.0000000 -2.22920 1.12600 -1.19010
H 1.0000000 -2.12180 0.90710 1.84720
H 1.0000000 -2.47390 -1.42110 1.74180
H 1.0000000 0.23660 -0.71740 2.00740
H 1.0000000 2.50420 0.23700 2.08540
H 1.0000000 6.47030 1.00390 -0.20970
H 1.0000000 -5.18290 -1.88930 -1.64890
H 1.0000000 -6.14670 -0.74660 -2.61560
H 1.0000000 -5.44030 -1.94040 0.84780
H 1.0000000 -6.58570 -0.82850 1.64140
H 1.0000000 -5.23910 1.10760 0.93390
H 1.0000000 -4.20720 -0.04230 1.82090
H 1.0000000 -7.78910 0.76140 -1.50080
H 1.0000000 -7.97760 0.72300 0.26870
H 1.0000000 -6.49360 1.38910 -0.45400
H 1.0000000 -0.67990 -2.63710 0.76130
H 1.0000000 -0.74370 -1.67380 -0.75300
H 1.0000000 0.29030 1.60650 2.31590
H 1.0000000 -0.12070 2.76020 1.01780
H 1.0000000 1.80920 1.99110 -0.30350
H 1.0000000 2.34440 2.54060 1.29740
H 1.0000000 4.01070 2.14160 -0.85880
H 1.0000000 2.96090 0.84990 -1.48890
H 1.0000000 4.74470 -0.40740 -2.27800
H 1.0000000 5.38400 1.23180 -2.50050
H 1.0000000 6.11730 -1.98370 -0.56500
H 1.0000000 6.51360 -1.05780 0.91340
H 1.0000000 4.24060 -3.02420 0.44480
H 1.0000000 1.78670 -2.88870 0.30150
H 1.0000000 2.10760 -2.15730 1.88730
H 1.0000000 1.63240 -0.64060 -0.72830
H 1.0000000 4.51750 0.99660 2.38980
H 1.0000000 5.79180 1.01240 1.14710
H 1.0000000 4.56750 2.30390 1.18290
H 1.0000000 -0.71340 1.83060 -1.30690
H 1.0000000 0.78520 0.87030 -1.28970
H 1.0000000 -0.78380 0.06700 -1.53660
H 1.0000000 -3.83390 2.35060 1.11750
H 1.0000000 -2.53580 3.15860 0.20630
H 1.0000000 -4.06790 2.74850 -0.60150
 $END
