 $BASIS GBASIS=N31 NGAUSS=6 NDFUNC=1 NPFUNC=1 $END
 $CONTRL SCFTYP=RHF RUNTYP=OPTIMIZE DFTTYP=B3LYP MAXIT=60 MULT=1 ICHARG=0 $END 
 $SYSTEM MEMDDI=1000 MWORDS=30 $END
 $STATPT NSTEP=999 $END
 $SCF DIRSCF=.TRUE. $END
 $DATA

C1
C 6.0000000 6.66280 -3.65140 0.00000
C 6.0000000 13.64292 2.06360 -0.61853
C 6.0000000 3.90191 -6.60622 0.37231
C 6.0000000 7.52880 -4.15140 0.00000
C 6.0000000 15.70955 1.21255 0.45998
C 6.0000000 11.11325 5.53577 0.57386
C 6.0000000 12.81391 1.33451 0.47768
C 6.0000000 10.21608 -2.21509 -0.74643
C 6.0000000 11.68950 3.67847 -0.94358
C 6.0000000 16.86690 0.33078 -0.08499
C 6.0000000 11.42164 7.04746 0.40334
C 6.0000000 13.21203 3.55378 -0.63340
C 6.0000000 5.59877 -5.05311 -0.43095
C 6.0000000 18.22937 0.88386 0.31484
C 6.0000000 10.18215 7.93784 0.45386
C 6.0000000 6.16586 -6.29753 0.12642
C 6.0000000 9.43174 -2.50087 0.57521
C 6.0000000 9.03358 -3.95856 0.59534
C 6.0000000 8.93455 7.17009 0.03984
C 6.0000000 18.22803 2.39050 0.10739
C 6.0000000 10.87323 2.48683 -0.42407
C 6.0000000 4.06690 -5.14898 -0.08001
C 6.0000000 8.75968 6.07405 1.09079
C 6.0000000 17.20975 3.01926 1.07600
C 6.0000000 12.90707 -0.80549 -0.80573
C 6.0000000 1.33817 -7.82423 -0.31711
C 6.0000000 9.39954 2.75155 -0.12077
C 6.0000000 5.79680 -3.15140 0.00000
C 6.0000000 9.49176 -2.69328 -2.03946
C 6.0000000 3.16835 -4.71350 -1.24536
C 6.0000000 16.67697 4.34471 0.54424
C 6.0000000 7.48834 5.25471 0.86403
C 6.0000000 0.27478 -8.89851 -0.10239
H 1.0000000 12.50634 8.44627 1.20355
H 1.0000000 17.60739 -1.45375 0.12341
H 1.0000000 13.55615 5.17357 -1.68305
H 1.0000000 9.47556 9.48317 -0.46227
H 1.0000000 20.04117 0.81477 -0.35066
H 1.0000000 7.07192 7.61663 -0.37670
H 1.0000000 19.54369 3.84023 0.12876
H 1.0000000 7.75514 1.71924 0.06566
C 6.0000000 7.31612 -5.64029 0.78193
C 6.0000000 7.04817 -2.76434 1.45845
C 6.0000000 10.11569 -4.94870 0.04085
C 6.0000000 8.18594 -1.73666 1.03199
C 6.0000000 10.45493 -0.73401 -0.98575
C 6.0000000 12.89651 -2.32427 -0.52680
C 6.0000000 2.81177 -6.76261 1.45123
C 6.0000000 2.70871 -8.44798 -0.60375
C 6.0000000 11.75968 -0.52064 -1.75621
C 6.0000000 1.40258 -6.85783 0.87537
O 8.0000000 12.35653 7.50043 1.39651
O 8.0000000 16.77575 -1.02269 0.40383
O 8.0000000 13.92649 4.27317 -1.65557
O 8.0000000 10.36657 9.08113 -0.39351
O 8.0000000 19.24590 0.25994 -0.48692
O 8.0000000 7.83080 8.08280 0.01924
O 8.0000000 19.55326 2.88855 0.33604
O 8.0000000 8.58992 1.61132 -0.42090
O 8.0000000 15.07796 1.89655 -0.62029
O 8.0000000 11.12749 4.98400 -0.74737
O 8.0000000 12.80286 -0.10177 0.43972
O 8.0000000 5.18796 -6.89137 0.97230
O 8.0000000 11.50055 1.87429 0.70015
O 8.0000000 16.12767 2.15521 1.44654
O 8.0000000 9.88706 5.20853 1.22904
O 8.0000000 3.69210 -7.43262 -0.77469
C 6.0000000 11.44480 -4.30232 -0.20626
C 6.0000000 11.53258 -3.00615 -0.53607
H 1.0000000 10.15054 -2.34359 1.39836
H 1.0000000 9.02268 -4.22863 1.66609
H 1.0000000 6.46654 -7.00988 -0.65003
H 1.0000000 7.79689 -4.44671 -1.02910
H 1.0000000 5.68744 -5.12625 -1.53458
H 1.0000000 1.04511 -7.23693 -1.19844
H 1.0000000 13.37410 1.68078 -1.60486
H 1.0000000 15.03153 0.52481 0.96104
H 1.0000000 11.90451 5.07896 1.17312
H 1.0000000 13.29587 1.55436 1.43631
H 1.0000000 11.61225 3.59121 -2.03803
H 1.0000000 16.78747 0.24368 -1.17545
H 1.0000000 11.93879 7.19348 -0.55443
H 1.0000000 13.49079 4.02075 0.31440
H 1.0000000 18.47461 0.62880 1.35356
H 1.0000000 10.04876 8.35049 1.46221
H 1.0000000 9.04907 6.76620 -0.97315
H 1.0000000 17.98656 2.61180 -0.93974
H 1.0000000 10.86094 1.76915 -1.23175
H 1.0000000 8.17764 -6.30476 0.67967
H 1.0000000 7.13974 -5.50751 1.85739
H 1.0000000 3.81292 -4.53684 0.78953
H 1.0000000 8.62659 6.54496 2.07351
H 1.0000000 17.72395 3.25017 2.01740
H 1.0000000 7.33213 -3.40207 2.30859
H 1.0000000 6.23834 -2.14304 1.89143
H 1.0000000 12.33622 -4.90180 -0.02491
H 1.0000000 10.27760 -5.73362 0.79214
H 1.0000000 9.78505 -5.47020 -0.86353
H 1.0000000 8.42663 -1.11048 1.89979
H 1.0000000 7.82585 -1.06726 0.24540
H 1.0000000 9.63052 -0.30379 -1.56434
H 1.0000000 10.45477 -0.21948 -0.02322
H 1.0000000 13.38034 -2.51613 0.44073
H 1.0000000 13.50369 -2.81410 -1.29959
H 1.0000000 2.86477 -5.95370 2.19034
H 1.0000000 3.00942 -7.67645 2.02685
H 1.0000000 13.87185 -0.56187 -1.26264
H 1.0000000 5.88841 -2.04057 -0.12349
H 1.0000000 5.23459 -3.10184 -0.96040
H 1.0000000 5.01812 -3.16346 0.78386
H 1.0000000 2.66526 -9.01991 -1.53697
H 1.0000000 3.02453 -9.14138 0.18423
H 1.0000000 11.82159 0.47674 -2.17892
H 1.0000000 11.82786 -1.17744 -2.63236
H 1.0000000 9.97673 -2.30698 -2.94310
H 1.0000000 8.45738 -2.33198 -2.05819
H 1.0000000 9.47985 -3.77457 -2.17887
H 1.0000000 1.06004 -5.86610 0.55796
H 1.0000000 0.70765 -7.15509 1.67009
H 1.0000000 9.25705 2.95271 0.94177
H 1.0000000 9.01820 3.55371 -0.75177
H 1.0000000 3.26718 -3.64212 -1.44622
H 1.0000000 3.41435 -5.24441 -2.17058
H 1.0000000 2.11228 -4.88478 -1.03185
H 1.0000000 17.47522 5.08967 0.47400
H 1.0000000 16.24648 4.22539 -0.45310
H 1.0000000 15.88654 4.73356 1.19402
H 1.0000000 6.59105 5.85494 1.04410
H 1.0000000 7.45459 4.38632 1.53021
H 1.0000000 7.43031 4.88402 -0.16371
H 1.0000000 -0.71627 -8.44507 0.01039
H 1.0000000 0.48237 -9.48569 0.79854
H 1.0000000 0.23295 -9.58532 -0.95390
 $END
