 $BASIS GBASIS=N31 NGAUSS=6 NDFUNC=1 NPFUNC=1 $END
 $CONTRL SCFTYP=RHF RUNTYP=OPTIMIZE DFTTYP=B3LYP MAXIT=60 MULT=1 ICHARG=0 $END 
 $SYSTEM MEMDDI=1000 MWORDS=30 $END
 $STATPT NSTEP=999 $END
 $SCF DIRSCF=.TRUE. $END
 $DATA

C1
O 8.0000000 0.34180 0.80470 -0.20730
C 6.0000000 -0.47490 -0.29500 -0.61180
C 6.0000000 -0.05580 -1.53110 0.19430
C 6.0000000 1.38200 -1.89020 -0.18930
C 6.0000000 2.24290 -0.65320 -0.14660
C 6.0000000 3.61860 -0.80030 -0.09260
C 6.0000000 4.43790 0.31140 -0.05580
C 6.0000000 3.88470 1.57820 -0.07300
C 6.0000000 2.51400 1.73110 -0.12520
C 6.0000000 1.68600 0.61390 -0.16150
O 8.0000000 -0.12310 -1.24020 1.59180
C 6.0000000 -1.92310 0.02120 -0.34000
C 6.0000000 -2.90370 -0.43550 -1.20060
C 6.0000000 -4.23200 -0.14540 -0.95120
C 6.0000000 -4.57980 0.60100 0.15910
C 6.0000000 -3.59930 1.05700 1.02020
C 6.0000000 -2.27130 0.76320 0.77320
H 1.0000000 -0.33370 -0.48540 -1.67580
H 1.0000000 -0.71780 -2.36460 -0.04030
H 1.0000000 1.77130 -2.62750 0.51270
H 1.0000000 1.39530 -2.30670 -1.19650
H 1.0000000 4.05320 -1.78890 -0.07870
H 1.0000000 5.51030 0.19090 -0.01330
H 1.0000000 4.52460 2.44780 -0.04520
H 1.0000000 2.08290 2.72120 -0.13760
H 1.0000000 0.12970 -1.98060 2.16020
H 1.0000000 -2.63190 -1.01870 -2.06800
H 1.0000000 -4.99810 -0.50170 -1.62400
H 1.0000000 -5.61760 0.82830 0.35350
H 1.0000000 -3.87100 1.64050 1.88750
H 1.0000000 -1.50530 1.11950 1.44600
 $END
