 $BASIS GBASIS=N31 NGAUSS=6 NDFUNC=1 NPFUNC=1 $END
 $CONTRL SCFTYP=RHF RUNTYP=OPTIMIZE DFTTYP=B3LYP MAXIT=60 MULT=1 ICHARG=0 $END 
 $SYSTEM MEMDDI=1000 MWORDS=30 $END
 $STATPT NSTEP=999 $END
 $SCF DIRSCF=.TRUE. $END
 $DATA

C1
C 6.0000000 1.77377 -0.87183 -0.07204
C 6.0000000 2.67360 0.17595 0.25722
C 6.0000000 2.09857 1.41356 0.58048
C 6.0000000 0.71831 1.63620 0.60625
C 6.0000000 -0.12629 0.63247 0.14232
C 6.0000000 0.45621 -0.51486 -0.39376
C 6.0000000 2.29752 -5.16116 -0.58148
C 6.0000000 3.39690 -4.31158 -0.51968
C 6.0000000 3.23091 -2.98165 -0.12465
C 6.0000000 1.97189 -2.37154 -0.06845
C 6.0000000 0.88313 -3.26443 -0.04585
C 6.0000000 1.03595 -4.62346 -0.36840
O 8.0000000 2.46539 -6.54778 -0.58771
O 8.0000000 -0.05086 -5.49514 -0.31736
O 8.0000000 -0.35007 -2.87517 0.47552
O 8.0000000 -0.27583 -1.29651 -1.28791
O 8.0000000 -1.49631 0.85858 -0.00765
O 8.0000000 0.21672 2.92710 0.76329
C 6.0000000 4.25378 -2.69494 0.93805
C 6.0000000 4.02541 0.40148 -0.42542
O 8.0000000 3.90039 -2.91307 2.08413
O 8.0000000 3.93121 0.33755 -1.63933
C 6.0000000 6.37943 -1.00020 0.99380
C 6.0000000 5.27210 -0.33951 1.95468
C 6.0000000 5.55685 1.01679 1.43595
C 6.0000000 7.04969 1.06510 2.09429
C 6.0000000 7.74954 -0.27936 2.58735
O 8.0000000 7.54956 -1.35048 1.68761
O 8.0000000 9.11496 -0.19376 2.97346
O 8.0000000 7.96279 1.97219 1.47258
O 8.0000000 5.21581 0.96497 0.00881
O 8.0000000 5.42096 -0.07806 3.39779
C 6.0000000 6.04269 -2.00555 -0.11664
O 8.0000000 5.47593 -3.07158 0.61040
C 6.0000000 9.57140 -1.41886 3.24661
C 6.0000000 10.84338 -1.69180 2.49593
O 8.0000000 9.51244 -1.83335 4.39387
C 6.0000000 11.67271 -0.57432 2.46194
C 6.0000000 12.34997 -0.24189 1.29023
C 6.0000000 12.33351 -1.12741 0.20936
C 6.0000000 11.56548 -2.29436 0.27199
C 6.0000000 10.77825 -2.54695 1.39554
O 8.0000000 12.95926 1.00553 1.16656
O 8.0000000 13.03384 -0.82138 -0.95440
O 8.0000000 11.49669 -3.15911 -0.81831
C 6.0000000 5.89374 3.42560 3.22645
C 6.0000000 5.38181 2.35291 4.21924
C 6.0000000 5.14366 2.88442 5.42637
C 6.0000000 5.27822 4.34309 5.60319
C 6.0000000 4.83339 5.20885 4.44857
C 6.0000000 4.65381 4.32624 3.20978
C 6.0000000 7.18190 4.27952 3.43526
C 6.0000000 7.01279 5.66218 3.62872
C 6.0000000 7.93376 6.58588 3.12528
C 6.0000000 9.17971 6.15715 2.67788
C 6.0000000 9.46045 4.79595 2.70637
C 6.0000000 8.43915 3.86961 2.94287
O 8.0000000 10.07213 7.03999 2.07021
O 8.0000000 7.58300 7.92903 2.98876
O 8.0000000 5.19998 4.80827 6.72826
O 8.0000000 3.61011 5.89508 4.73496
O 8.0000000 3.42998 3.59596 3.38672
O 8.0000000 4.63184 5.05064 1.97516
O 8.0000000 5.82565 6.17298 4.14153
C 6.0000000 4.75393 0.98660 3.94292
C 6.0000000 8.76774 2.49171 2.40576
O 8.0000000 3.90696 0.65883 4.75743
O 8.0000000 9.94937 2.19062 2.34492
H 1.0000000 2.73968 2.28481 0.58789
H 1.0000000 4.37626 -4.76787 -0.43534
H 1.0000000 3.36834 -6.80798 -0.44636
H 1.0000000 -0.88115 -5.04306 -0.24566
H 1.0000000 -0.24117 -2.34965 1.25785
H 1.0000000 -1.20888 -1.12396 -1.23190
H 1.0000000 -1.76950 1.68994 0.36254
H 1.0000000 0.69232 3.54368 0.21813
H 1.0000000 6.89222 -0.30961 0.29776
H 1.0000000 4.22217 -0.57261 1.79469
H 1.0000000 4.77256 1.68284 1.79065
H 1.0000000 7.04754 1.41524 3.12372
H 1.0000000 7.37269 -0.70700 3.52709
H 1.0000000 6.97711 -2.31769 -0.61096
H 1.0000000 5.38087 -1.58675 -0.89150
H 1.0000000 11.60277 0.13995 3.27558
H 1.0000000 10.03747 -3.33977 1.36661
H 1.0000000 12.71945 1.58435 1.88168
H 1.0000000 13.52526 -0.01443 -0.85807
H 1.0000000 12.10097 -2.90499 -1.50549
H 1.0000000 6.03364 3.21071 2.16905
H 1.0000000 4.70651 2.31855 6.24793
H 1.0000000 10.40103 4.47469 2.27240
H 1.0000000 9.71167 7.91598 1.99553
H 1.0000000 6.64260 8.05735 3.02739
H 1.0000000 2.91620 5.27640 4.93110
H 1.0000000 3.26487 2.97569 2.69158
H 1.0000000 3.86819 5.61069 1.92641
 $END
