 $BASIS GBASIS=N31 NGAUSS=6 NDFUNC=1 NPFUNC=1 $END
 $CONTRL SCFTYP=RHF RUNTYP=OPTIMIZE DFTTYP=B3LYP MAXIT=60 MULT=1 ICHARG=0 $END 
 $SYSTEM MEMDDI=1000 MWORDS=30 $END
 $STATPT NSTEP=999 $END
 $SCF DIRSCF=.TRUE. $END
 $DATA

C1
C 6.0000000 -2.66330 1.26200 1.42770
C 6.0000000 2.66250 -1.18870 1.49300
C 6.0000000 -6.16060 2.79870 0.65110
C 6.0000000 -6.55510 1.05180 2.39320
C 6.0000000 -0.44000 1.90840 2.30950
C 6.0000000 0.43920 -1.78570 2.40910
C 6.0000000 6.15860 -2.76680 0.79670
C 6.0000000 6.55510 -0.93060 2.44390
H 1.0000000 -0.72210 -1.27470 -1.93800
H 1.0000000 -7.34610 0.79130 -0.81040
H 1.0000000 -6.32750 -2.59260 -1.43750
H 1.0000000 0.88070 2.43880 -0.78640
H 1.0000000 6.32720 2.50790 -1.57210
H 1.0000000 7.34450 -0.84020 -0.76940
C 6.0000000 -4.88850 0.67080 0.59700
C 6.0000000 -3.79360 -1.28770 -1.11200
C 6.0000000 -1.52970 -0.67400 -0.25420
C 6.0000000 -5.69280 -0.07840 -0.20760
C 6.0000000 -1.31770 1.07200 1.41440
C 6.0000000 -5.17160 -1.05540 -1.06420
C 6.0000000 -0.73480 0.10750 0.57910
C 6.0000000 0.73410 -0.08050 0.58420
C 6.0000000 1.52930 0.65530 -0.28950
C 6.0000000 1.31700 -0.99900 1.47000
C 6.0000000 3.79310 1.22220 -1.17870
C 6.0000000 4.88770 -0.64400 0.63090
C 6.0000000 5.17110 0.99260 -1.11870
C 6.0000000 5.69210 0.06120 -0.21250
O 8.0000000 -3.96170 -2.88750 -2.78400
O 8.0000000 3.96180 2.73320 -2.93130
O 8.0000000 -0.96480 -1.60750 -1.06310
O 8.0000000 -7.03630 0.12830 -0.17830
O 8.0000000 -6.00590 -1.77920 -1.84980
O 8.0000000 0.96460 1.54510 -1.14630
O 8.0000000 6.00550 1.67400 -1.94120
O 8.0000000 7.03540 -0.14450 -0.17300
C 6.0000000 -5.50140 1.70990 1.50020
C 6.0000000 5.50050 -1.63430 1.58740
C 6.0000000 -3.23850 -2.30520 -2.00200
C 6.0000000 3.23810 2.19140 -2.12120
C 6.0000000 -3.49390 0.48770 0.59690
C 6.0000000 -2.91800 -0.48820 -0.25070
C 6.0000000 2.91750 0.46960 -0.27610
C 6.0000000 3.49320 -0.46030 0.62180
H 1.0000000 -3.09630 2.00560 2.08040
H 1.0000000 -4.72450 2.15460 2.12210
H 1.0000000 -2.18480 -2.53910 -1.96400
H 1.0000000 -6.60390 3.55030 1.30440
H 1.0000000 -5.40990 3.26760 0.01490
H 1.0000000 -6.93750 2.35400 0.02920
H 1.0000000 -6.08560 0.27610 2.99810
H 1.0000000 -6.99850 1.80340 3.04640
H 1.0000000 -7.33200 0.60710 1.77130
H 1.0000000 -0.32010 1.40860 3.27070
H 1.0000000 0.53650 2.03770 1.84290
H 1.0000000 -0.90170 2.88400 2.46230
H 1.0000000 3.09530 -1.89660 2.18440
H 1.0000000 0.13500 -2.71570 1.92880
H 1.0000000 0.99290 -2.01160 3.32040
H 1.0000000 -0.44510 -1.19870 2.65730
H 1.0000000 2.18410 2.42550 -2.09700
H 1.0000000 4.72370 -2.04500 2.23230
H 1.0000000 6.93540 -2.35610 0.15180
H 1.0000000 6.60180 -3.48310 1.48850
H 1.0000000 5.40730 -3.26820 0.18650
H 1.0000000 6.08630 -0.12370 3.00720
H 1.0000000 6.99830 -1.64690 3.13570
H 1.0000000 7.33190 -0.51980 1.79900
 $END
