 $BASIS GBASIS=N31 NGAUSS=6 NDFUNC=1 NPFUNC=1 $END
 $CONTRL SCFTYP=RHF RUNTYP=OPTIMIZE DFTTYP=B3LYP MAXIT=60 MULT=1 ICHARG=0 $END 
 $SYSTEM MEMDDI=1000 MWORDS=30 $END
 $STATPT NSTEP=999 $END
 $SCF DIRSCF=.TRUE. $END
 $DATA

C1
C 6.0000000 -1.21760 -2.00470 0.63810
C 6.0000000 0.07080 -2.71810 0.17060
C 6.0000000 1.20390 -1.74810 0.57270
C 6.0000000 -6.26780 0.62350 -1.64940
C 6.0000000 -5.49350 0.68640 0.64170
C 6.0000000 6.65460 0.25740 -1.40520
C 6.0000000 5.53640 0.84950 0.65680
C 6.0000000 -2.13260 -1.71530 -0.55350
C 6.0000000 2.30440 -1.74490 -0.49020
H 1.0000000 -2.71830 -2.39380 1.94110
H 1.0000000 1.01480 -4.46080 0.58660
H 1.0000000 -0.19590 -0.05800 3.12180
H 1.0000000 -9.00120 1.11320 -2.33820
H 1.0000000 -6.33640 2.71940 2.46990
H 1.0000000 -9.36960 2.05810 0.63680
H 1.0000000 8.62670 3.51370 0.14870
H 1.0000000 9.47990 0.56160 -1.73690
H 1.0000000 6.16870 3.24500 2.08810
C 6.0000000 -5.32700 0.26450 -0.68030
C 6.0000000 5.56030 0.13550 -0.54450
C 6.0000000 -7.35980 1.39460 -1.29840
C 6.0000000 -6.58740 1.45730 0.98710
C 6.0000000 -7.52320 1.81350 0.01940
C 6.0000000 7.68360 1.79300 0.13110
C 6.0000000 7.70990 1.08320 -1.06660
C 6.0000000 6.59440 1.67380 0.99040
O 8.0000000 -4.01760 -0.92510 -2.20130
O 8.0000000 4.45430 -1.36440 -1.94820
O 8.0000000 -1.90170 -2.79450 1.61290
O 8.0000000 0.22170 -3.97020 0.84250
O 8.0000000 -0.55790 -0.83840 2.68010
O 8.0000000 -8.27540 1.74470 -2.24110
O 8.0000000 -6.75030 1.86780 2.27340
O 8.0000000 -8.59770 2.57150 0.36180
O 8.0000000 8.72270 2.60390 0.46180
O 8.0000000 8.77510 1.20230 -1.90370
O 8.0000000 6.57180 2.36890 2.15920
C 6.0000000 -4.16100 -0.55860 -1.05170
C 6.0000000 4.43260 -0.74450 -0.90340
O 8.0000000 -3.25470 -0.90410 -0.11630
O 8.0000000 3.37810 -0.86110 -0.07260
C 6.0000000 -0.71050 -0.68810 1.26720
O 8.0000000 0.57140 -0.45170 0.64540
H 1.0000000 0.05590 -2.86460 -0.90940
H 1.0000000 -1.39640 0.12940 1.04520
H 1.0000000 1.61390 -2.02530 1.54380
H 1.0000000 -1.57290 -1.17860 -1.31950
H 1.0000000 -2.50190 -2.65480 -0.96470
H 1.0000000 2.69320 -2.75570 -0.61370
H 1.0000000 1.89370 -1.39540 -1.43740
H 1.0000000 -6.13920 0.30260 -2.67260
H 1.0000000 -4.76800 0.41030 1.39260
H 1.0000000 6.67770 -0.29660 -2.33200
H 1.0000000 4.69180 0.75740 1.32360
 $END
