 $BASIS GBASIS=N31 NGAUSS=6 NDFUNC=1 NPFUNC=1 $END
 $CONTRL SCFTYP=RHF RUNTYP=OPTIMIZE DFTTYP=B3LYP MAXIT=60 MULT=1 ICHARG=0 $END 
 $SYSTEM MEMDDI=1000 MWORDS=30 $END
 $STATPT NSTEP=999 $END
 $SCF DIRSCF=.TRUE. $END
 $DATA

C1
C 6.0000000 -0.46900 -1.53660 0.59140
C 6.0000000 1.55180 -0.23470 -0.05500
C 6.0000000 -4.48500 0.32890 0.48710
C 6.0000000 -3.55710 1.78970 -0.89680
C 6.0000000 -5.45840 0.93240 -0.21830
C 6.0000000 -1.31760 -0.62200 -0.29420
C 6.0000000 0.64070 0.60310 -0.95440
C 6.0000000 -1.88340 0.52260 0.54880
C 6.0000000 -1.31130 -2.04740 1.76210
C 6.0000000 -1.15600 -3.50490 -0.78620
H 1.0000000 0.84270 2.31880 -2.01110
C 6.0000000 -3.25940 0.88150 0.04970
O 8.0000000 4.77420 1.49870 -0.01170
C 6.0000000 2.08610 -1.41770 -0.85850
C 6.0000000 0.89980 -2.22670 -1.39390
C 6.0000000 0.28960 0.43140 1.97420
C 6.0000000 1.53140 1.03730 2.63460
O 8.0000000 1.35990 1.74130 -1.43320
O 8.0000000 3.80480 0.42960 -1.69980
C 6.0000000 3.81200 0.88650 -0.43170
C 6.0000000 0.03810 -2.72420 -0.23340
C 6.0000000 2.65630 0.64420 0.44310
H 1.0000000 4.58750 0.61340 -2.23710
C 6.0000000 2.63590 1.21070 1.63480
C 6.0000000 0.73280 -0.76060 1.12570
O 8.0000000 -4.89050 1.81620 -1.05500
H 1.0000000 1.35230 -1.42290 1.73030
H 1.0000000 0.63250 -3.37920 0.40350
H 1.0000000 2.68510 -1.05220 -1.69260
H 1.0000000 2.69860 -2.04950 -0.21530
H 1.0000000 0.29720 -1.59560 -2.04710
H 1.0000000 1.27090 -3.08060 -1.96070
H 1.0000000 -0.40880 0.09710 2.74140
H 1.0000000 -0.18980 1.17660 1.33940
H 1.0000000 -0.69860 -0.21330 -1.09300
H 1.0000000 -2.13800 -1.19450 -0.72700
H 1.0000000 -1.66040 -1.20190 2.35480
H 1.0000000 -2.16850 -2.60090 1.37870
H 1.0000000 -0.70510 -2.70340 2.38680
H 1.0000000 0.31070 -0.00020 -1.80020
H 1.0000000 -0.22700 0.93500 -0.38440
H 1.0000000 1.27480 2.00860 3.05760
H 1.0000000 1.87080 0.37760 3.43320
H 1.0000000 -1.80210 -2.83070 -1.34840
H 1.0000000 -0.79880 -4.29790 -1.44330
H 1.0000000 -1.71770 -3.94240 0.03910
H 1.0000000 3.46960 1.84040 1.90840
H 1.0000000 -1.94520 0.21000 1.59120
H 1.0000000 -1.22970 1.39100 0.46800
H 1.0000000 -4.61510 -0.42910 1.24540
H 1.0000000 -2.84470 2.39490 -1.43780
H 1.0000000 -6.51700 0.73880 -0.12760
 $END
