 $BASIS GBASIS=N31 NGAUSS=6 NDFUNC=1 NPFUNC=1 $END
 $CONTRL SCFTYP=RHF RUNTYP=OPTIMIZE DFTTYP=B3LYP MAXIT=60 MULT=1 ICHARG=0 $END 
 $SYSTEM MEMDDI=1000 MWORDS=30 $END
 $STATPT NSTEP=999 $END
 $SCF DIRSCF=.TRUE. $END
 $DATA

C1
C 6.0000000 0.55570 1.19820 -0.01270
C 6.0000000 1.91180 1.64070 -0.52260
C 6.0000000 -0.06530 0.47520 -1.24210
C 6.0000000 2.29850 0.65150 -1.66700
C 6.0000000 3.06510 1.47940 0.48850
C 6.0000000 -1.29470 -0.26340 -0.79800
C 6.0000000 3.76000 0.15090 0.09870
C 6.0000000 -2.34350 0.74710 -0.32500
C 6.0000000 -3.53410 -0.01410 0.27170
C 6.0000000 -4.14040 -0.88090 -0.82870
C 6.0000000 5.59720 -1.89930 1.00860
C 6.0000000 -6.40030 -0.65850 0.20610
C 6.0000000 0.60380 0.31730 1.22740
C 6.0000000 4.06650 2.64140 0.32630
C 6.0000000 -3.09080 -0.86430 1.45590
C 6.0000000 6.49140 -3.11790 0.78610
H 1.0000000 -8.21270 -0.82590 1.10060
O 8.0000000 -0.14950 3.46990 0.20110
C 6.0000000 1.10330 -0.32560 -1.80180
C 6.0000000 -1.83580 1.81400 0.62840
C 6.0000000 -1.92200 -1.03720 -1.97450
C 6.0000000 3.26300 -1.02010 0.92800
C 6.0000000 -3.11320 -1.83420 -1.43150
C 6.0000000 4.13940 -2.26400 0.72800
C 6.0000000 5.99870 -0.77850 0.04290
C 6.0000000 -4.59270 0.99690 0.73220
C 6.0000000 -5.34850 -1.64450 -0.29770
C 6.0000000 -5.81350 0.26130 1.27390
O 8.0000000 -7.50270 -1.38660 0.75910
C 6.0000000 -0.44450 2.30410 0.26200
O 8.0000000 3.46780 -0.06070 -1.28390
O 8.0000000 5.16440 0.35070 0.27580
H 1.0000000 1.86700 2.68720 -0.90840
H 1.0000000 2.46050 1.19060 -2.60960
H 1.0000000 -0.35310 1.23370 -1.98230
H 1.0000000 -1.05320 -0.99490 -0.03090
H 1.0000000 -2.72320 1.25920 -1.22520
H 1.0000000 -4.48660 -0.20160 -1.63030
H 1.0000000 1.30440 0.74090 1.94700
H 1.0000000 -0.38890 0.26460 1.67440
H 1.0000000 0.93050 -0.68460 0.94880
H 1.0000000 2.74080 1.46210 1.52430
H 1.0000000 1.27370 -1.22440 -1.21960
H 1.0000000 0.92760 -0.56710 -2.84830
H 1.0000000 -2.52330 2.67350 0.57910
H 1.0000000 -1.84060 1.45720 1.65480
H 1.0000000 3.55730 3.58790 0.50770
H 1.0000000 4.87950 2.52310 1.04270
H 1.0000000 4.47050 2.63430 -0.68600
H 1.0000000 -2.27150 -0.32280 -2.71690
H 1.0000000 -1.18760 -1.70690 -2.40630
H 1.0000000 3.23580 -0.75630 1.98370
H 1.0000000 2.26180 -1.31010 0.58110
H 1.0000000 -2.76610 -2.55120 -0.69430
H 1.0000000 -3.57520 -2.37620 -2.26240
H 1.0000000 4.03960 -2.61200 -0.29920
H 1.0000000 3.81610 -3.04380 1.41240
H 1.0000000 7.04370 -0.50740 0.22350
H 1.0000000 5.88820 -1.12690 -0.98070
H 1.0000000 -2.66280 -0.22120 2.22490
H 1.0000000 -3.95070 -1.39550 1.86390
H 1.0000000 -2.34190 -1.58430 1.12620
H 1.0000000 -4.17440 1.64200 1.50260
H 1.0000000 -4.88710 1.60610 -0.12540
H 1.0000000 5.69570 -1.54910 2.03770
H 1.0000000 -5.78140 -2.22810 -1.12110
H 1.0000000 -5.06280 -2.33110 0.49170
H 1.0000000 -6.57310 1.00480 1.55530
H 1.0000000 -5.55990 -0.30850 2.16390
H 1.0000000 6.39760 -3.45360 -0.24670
H 1.0000000 7.52830 -2.84940 0.98820
H 1.0000000 6.18620 -3.92010 1.45800
H 1.0000000 -6.75650 -0.05480 -0.63150
 $END
