 $BASIS GBASIS=N31 NGAUSS=6 NDFUNC=1 NPFUNC=1 $END
 $CONTRL SCFTYP=RHF RUNTYP=OPTIMIZE DFTTYP=B3LYP MAXIT=60 MULT=1 ICHARG=0 $END 
 $SYSTEM MEMDDI=1000 MWORDS=30 $END
 $STATPT NSTEP=999 $END
 $SCF DIRSCF=.TRUE. $END
 $DATA

C1
C 6.0000000 -0.90720 -0.61300 0.18720
C 6.0000000 1.23470 -0.33570 -1.19110
C 6.0000000 -0.20810 -0.84620 -1.16120
C 6.0000000 1.46190 1.17690 -0.93960
C 6.0000000 -1.65170 0.77090 0.04050
C 6.0000000 -0.68900 1.86890 0.21800
C 6.0000000 -0.06340 -0.72020 1.43810
C 6.0000000 -1.47620 3.18240 0.37190
H 1.0000000 -0.60780 -0.53430 -3.11600
O 8.0000000 3.46530 -0.13420 1.57280
O 8.0000000 -2.26880 -2.63350 -0.06960
C 6.0000000 0.23450 2.03070 -0.98600
O 8.0000000 -0.95870 -0.30860 -2.24360
C 6.0000000 2.68220 0.05320 0.65980
C 6.0000000 2.16100 -1.01230 -0.21570
C 6.0000000 -2.13190 -1.50550 0.34700
O 8.0000000 2.18280 1.25230 0.31600
C 6.0000000 -2.80180 0.62000 0.98670
C 6.0000000 -3.08090 -0.68330 1.11140
C 6.0000000 2.47630 -2.30570 -0.15240
H 1.0000000 2.15460 1.55270 -1.72560
H 1.0000000 1.62030 -0.56580 -2.22730
H 1.0000000 -2.08260 0.84020 -0.96250
H 1.0000000 -0.17020 -1.94570 -1.30670
H 1.0000000 -3.32140 1.42300 1.48380
H 1.0000000 -3.89940 -1.07740 1.69930
H 1.0000000 -0.09260 1.74640 1.11420
H 1.0000000 0.54280 3.08350 -1.03010
H 1.0000000 -0.32910 1.82430 -1.89510
H 1.0000000 3.17520 -2.65530 0.59300
H 1.0000000 2.03290 -3.00420 -0.84660
H 1.0000000 0.73240 0.02390 1.40430
H 1.0000000 -0.68800 -0.54460 2.31390
H 1.0000000 0.37360 -1.71700 1.49730
H 1.0000000 -2.12990 3.11450 1.24150
H 1.0000000 -0.77950 4.01010 0.50490
H 1.0000000 -2.07670 3.35290 -0.52160
 $END
