 $BASIS GBASIS=N31 NGAUSS=6 NDFUNC=1 NPFUNC=1 $END
 $CONTRL SCFTYP=RHF RUNTYP=OPTIMIZE DFTTYP=B3LYP MAXIT=60 MULT=1 ICHARG=0 $END 
 $SYSTEM MEMDDI=1000 MWORDS=30 $END
 $STATPT NSTEP=999 $END
 $SCF DIRSCF=.TRUE. $END
 $DATA

C1
C 6.0000000 2.81260 -3.64530 -0.52500
C 6.0000000 2.84380 3.61370 -0.21380
C 6.0000000 -2.81270 -3.64570 0.52320
C 6.0000000 -2.84320 3.61450 0.21270
C 6.0000000 0.77930 -4.78850 -1.31340
C 6.0000000 -0.77890 -4.79010 1.30910
H 1.0000000 5.16670 -2.78120 0.87210
H 1.0000000 0.85080 4.79540 -1.79060
H 1.0000000 5.37680 2.37170 -0.59250
H 1.0000000 -5.16820 -2.77950 -0.87040
H 1.0000000 -0.84890 4.79880 1.78540
H 1.0000000 -5.37580 2.37320 0.59660
C 6.0000000 1.43630 -3.63160 -0.59800
C 6.0000000 3.52090 -2.50650 -0.15210
C 6.0000000 1.46640 3.61560 -0.35240
C 6.0000000 3.53230 2.43930 0.06200
C 6.0000000 -1.43630 -3.63220 0.59570
C 6.0000000 -3.52130 -2.50650 0.15240
C 6.0000000 -1.46570 3.61630 0.35000
C 6.0000000 -3.53230 2.43980 -0.06070
O 8.0000000 4.72920 -0.05650 0.58540
O 8.0000000 -4.73030 -0.05590 -0.57940
O 8.0000000 4.86730 -2.56360 -0.02130
O 8.0000000 0.87310 4.73900 -0.82550
O 8.0000000 4.87610 2.47610 0.22810
O 8.0000000 -4.86770 -2.56330 0.02290
O 8.0000000 -0.87170 4.74040 0.82050
O 8.0000000 -4.87630 2.47650 -0.22490
C 6.0000000 3.54930 -0.04680 0.28680
C 6.0000000 -3.54970 -0.04630 -0.28350
C 6.0000000 2.83110 -1.30820 0.05550
C 6.0000000 2.83640 1.22630 0.13410
C 6.0000000 -2.83140 -1.30800 -0.05420
C 6.0000000 -2.83650 1.22660 -0.13240
C 6.0000000 0.71410 -2.52220 -0.16870
C 6.0000000 0.72720 2.45100 -0.08780
C 6.0000000 -0.71430 -2.52220 0.16750
C 6.0000000 -0.72680 2.45120 0.08660
C 6.0000000 0.70000 -0.03630 0.00420
C 6.0000000 -0.70020 -0.03630 -0.00420
C 6.0000000 1.42230 -1.30430 -0.03220
C 6.0000000 1.42760 1.22880 0.01100
C 6.0000000 -1.42250 -1.30420 0.03220
C 6.0000000 -1.42760 1.22900 -0.01090
H 1.0000000 3.34690 -4.55480 -0.75650
H 1.0000000 0.79250 -4.60610 -2.38790
H 1.0000000 1.32320 -5.70730 -1.09410
H 1.0000000 -0.25190 -4.88710 -0.97420
H 1.0000000 3.38930 4.53880 -0.32610
H 1.0000000 -3.34690 -4.55500 0.75580
H 1.0000000 -0.79150 -4.60910 2.38390
H 1.0000000 -1.32300 -5.70860 1.08900
H 1.0000000 0.25210 -4.88820 0.96920
H 1.0000000 -3.38850 4.53970 0.32450
 $END
