 $BASIS GBASIS=N31 NGAUSS=6 NDFUNC=1 NPFUNC=1 $END
 $CONTRL SCFTYP=RHF RUNTYP=OPTIMIZE DFTTYP=B3LYP MAXIT=60 MULT=1 ICHARG=0 $END 
 $SYSTEM MEMDDI=1000 MWORDS=30 $END
 $STATPT NSTEP=999 $END
 $SCF DIRSCF=.TRUE. $END
 $DATA

C1
C 6.0000000 -0.71010 -0.14290 0.59630
C 6.0000000 -2.13090 0.41840 0.71630
C 6.0000000 0.29770 0.97090 0.81720
C 6.0000000 -3.10770 -0.68740 0.27810
C 6.0000000 -2.31450 1.40900 -0.45730
C 6.0000000 0.20120 1.91910 -0.38120
C 6.0000000 4.02320 -1.63900 -0.41250
C 6.0000000 4.87700 0.40390 -0.32290
C 6.0000000 5.88360 -0.48660 -0.26750
C 6.0000000 1.70870 0.38590 0.90530
C 6.0000000 2.28040 0.21860 -0.50400
C 6.0000000 -0.53100 -0.66330 -0.83130
C 6.0000000 -4.48560 -0.28790 0.81000
C 6.0000000 1.11330 3.12320 -0.13820
H 1.0000000 0.59420 2.40150 2.21970
C 6.0000000 3.67770 -0.33900 -0.41630
O 8.0000000 -3.75380 -1.32480 -1.96120
C 6.0000000 -1.21200 2.40890 -0.60100
C 6.0000000 -0.54130 -1.32600 1.53140
C 6.0000000 -2.83710 -2.05510 0.79920
C 6.0000000 -1.39310 -2.46990 0.97180
O 8.0000000 -0.01320 1.67580 2.02070
C 6.0000000 -3.17540 -0.56440 -1.22140
O 8.0000000 -2.48590 0.53410 -1.60820
O 8.0000000 5.36060 -1.72240 -0.32220
H 1.0000000 -2.35110 0.83340 1.69980
H 1.0000000 -3.24470 1.95550 -0.30140
H 1.0000000 0.53820 1.39550 -1.27590
H 1.0000000 -1.26870 2.82760 -1.60570
H 1.0000000 -1.39950 3.21770 0.10540
H 1.0000000 2.34610 1.05920 1.47840
H 1.0000000 1.66920 -0.58510 1.39900
H 1.0000000 3.34060 -2.47410 -0.46790
H 1.0000000 4.96750 1.47980 -0.30030
H 1.0000000 6.93430 -0.24820 -0.19250
H 1.0000000 1.65100 -0.46600 -1.07250
H 1.0000000 2.30640 1.18740 -1.00280
H 1.0000000 0.50610 -1.62560 1.56590
H 1.0000000 -0.88580 -1.06130 2.53110
H 1.0000000 -0.47870 0.17900 -1.52110
H 1.0000000 0.39040 -1.24220 -0.89410
H 1.0000000 -1.37730 -1.29740 -1.09570
H 1.0000000 -3.32760 -2.14530 1.76840
H 1.0000000 -3.30990 -2.76830 0.12400
H 1.0000000 -5.23840 -0.97210 0.41880
H 1.0000000 -4.48240 -0.33530 1.89900
H 1.0000000 -4.71750 0.72830 0.49130
H 1.0000000 -0.99170 -2.77240 0.00470
H 1.0000000 -1.34550 -3.31690 1.65630
H 1.0000000 2.11970 2.77540 0.09490
H 1.0000000 1.14180 3.74400 -1.03370
H 1.0000000 0.72830 3.70790 0.69720
 $END
