 $BASIS GBASIS=N31 NGAUSS=6 NDFUNC=1 NPFUNC=1 $END
 $CONTRL SCFTYP=RHF RUNTYP=OPTIMIZE DFTTYP=B3LYP MAXIT=60 MULT=1 ICHARG=0 $END 
 $SYSTEM MEMDDI=1000 MWORDS=30 $END
 $STATPT NSTEP=999 $END
 $SCF DIRSCF=.TRUE. $END
 $DATA

C1
C 6.0000000 -0.61450 -0.53640 -0.24700
C 6.0000000 -1.34870 0.69120 0.26400
C 6.0000000 -2.82880 0.46220 0.58780
C 6.0000000 0.77500 -0.10780 -0.76310
C 6.0000000 -3.48590 -0.16050 -0.64060
C 6.0000000 3.02590 0.49580 0.47130
C 6.0000000 3.53790 -0.85960 0.00670
C 6.0000000 -5.63260 1.08530 -0.18180
C 6.0000000 -0.38180 -1.54580 0.89120
C 6.0000000 -3.01850 -0.37570 1.84410
C 6.0000000 0.60110 0.93550 -1.87400
C 6.0000000 -5.48640 -0.49810 -2.06240
C 6.0000000 -5.52150 -1.37850 0.24880
C 6.0000000 5.67590 2.67200 -1.30360
C 6.0000000 5.67380 1.87600 1.05540
H 1.0000000 -7.50100 1.65760 0.36270
O 8.0000000 2.38300 -1.61610 1.92020
C 6.0000000 -1.37680 -1.23580 -1.36890
C 6.0000000 -0.60250 1.33680 1.41940
C 6.0000000 -2.82870 -1.50510 -0.94830
C 6.0000000 1.48860 -1.29250 -1.38220
C 6.0000000 -3.47300 1.83940 0.83290
C 6.0000000 3.00340 -1.15500 -1.38950
C 6.0000000 3.62260 1.62370 -0.36530
C 6.0000000 5.06520 -0.89680 0.01140
C 6.0000000 -4.97190 1.66520 1.06160
C 6.0000000 5.64610 0.22740 -0.83570
O 8.0000000 -7.02380 0.86520 0.08050
O 8.0000000 3.38900 -3.20820 0.76410
C 6.0000000 3.06050 -1.92280 0.96800
H 1.0000000 3.06030 -3.85250 1.40600
C 6.0000000 0.87820 1.19110 1.30350
C 6.0000000 -4.99530 -0.23380 -0.61660
C 6.0000000 5.14820 1.58750 -0.35090
C 6.0000000 1.51740 0.54860 0.36030
H 1.0000000 -1.37000 1.45000 -0.54870
H 1.0000000 -3.21660 0.50880 -1.49630
H 1.0000000 3.29580 0.63580 1.52380
H 1.0000000 -1.39120 -0.62610 -2.26980
H 1.0000000 -0.89680 -2.19050 -1.59700
H 1.0000000 -0.83360 2.40720 1.42260
H 1.0000000 -0.91120 0.92110 2.37120
H 1.0000000 -2.85020 -2.16870 -0.09350
H 1.0000000 -3.33550 -1.99110 -1.78580
H 1.0000000 1.20350 -2.22910 -0.92050
H 1.0000000 1.16230 -1.35560 -2.43690
H 1.0000000 1.47590 1.66270 2.06800
H 1.0000000 -3.01690 2.29430 1.71050
H 1.0000000 -3.30380 2.47020 -0.03850
H 1.0000000 3.29460 -0.35320 -2.07210
H 1.0000000 3.44470 -2.08980 -1.75330
H 1.0000000 -1.33570 -1.97630 1.19570
H 1.0000000 0.28040 -2.33890 0.54380
H 1.0000000 0.07480 -1.03710 1.74020
H 1.0000000 3.27810 1.53680 -1.39860
H 1.0000000 3.28440 2.58570 0.03180
H 1.0000000 -5.54760 1.80540 -1.00350
H 1.0000000 -2.35940 -0.00670 2.62990
H 1.0000000 -4.05440 -0.30430 2.17540
H 1.0000000 -2.77750 -1.41620 1.62660
H 1.0000000 0.07450 1.80370 -1.47780
H 1.0000000 1.58060 1.24130 -2.24170
H 1.0000000 0.02480 0.50280 -2.69170
H 1.0000000 5.42410 -0.82830 1.03730
H 1.0000000 5.39020 -1.85990 -0.39840
H 1.0000000 -5.40980 2.65520 1.26160
H 1.0000000 -5.17060 1.04230 1.92840
H 1.0000000 6.73920 0.20120 -0.77250
H 1.0000000 5.35810 0.08570 -1.88030
H 1.0000000 -5.06990 -1.43940 -2.42120
H 1.0000000 -6.57480 -0.55540 -2.07160
H 1.0000000 -5.15980 0.31450 -2.71130
H 1.0000000 -5.28400 -1.18240 1.29440
H 1.0000000 -6.60220 -1.45650 0.13020
H 1.0000000 -5.05360 -2.31300 -0.06090
H 1.0000000 5.32550 3.64930 -0.97140
H 1.0000000 6.76580 2.65730 -1.30300
H 1.0000000 5.31050 2.47870 -2.31220
H 1.0000000 5.29390 1.12360 1.74660
H 1.0000000 6.76340 1.84660 1.04920
H 1.0000000 5.33870 2.86340 1.37310
 $END
