 $BASIS GBASIS=N31 NGAUSS=6 NDFUNC=1 NPFUNC=1 $END
 $CONTRL SCFTYP=RHF RUNTYP=OPTIMIZE DFTTYP=B3LYP MAXIT=60 MULT=1 ICHARG=0 $END 
 $SYSTEM MEMDDI=1000 MWORDS=30 $END
 $STATPT NSTEP=999 $END
 $SCF DIRSCF=.TRUE. $END
 $DATA

C1
C 6.0000000 0.40070 2.65180 0.54630
C 6.0000000 2.22530 0.83760 0.37990
C 6.0000000 3.88520 -0.88990 0.45510
C 6.0000000 4.49840 -1.94100 1.38410
C 6.0000000 5.62220 -2.67230 0.64340
C 6.0000000 4.42160 -2.18620 -1.49010
C 6.0000000 5.05630 -3.28940 -0.63930
C 6.0000000 -6.90120 -0.50150 -0.46030
C 6.0000000 -5.58410 -2.50280 -0.50820
C 6.0000000 -6.62710 -3.20900 0.06250
C 6.0000000 -0.53370 2.25690 -0.59910
C 6.0000000 3.80090 -2.80310 -2.74510
C 6.0000000 -3.68340 0.17690 -0.28780
C 6.0000000 -4.58090 -0.38760 -1.39080
C 6.0000000 1.26090 -0.37290 2.78940
C 6.0000000 -0.36810 6.60390 -0.81440
H 1.0000000 4.37300 -0.81270 3.06110
H 1.0000000 6.52120 -3.38560 2.31200
H 1.0000000 6.56180 -4.61980 -0.89350
H 1.0000000 2.90250 -2.08260 -4.41090
H 1.0000000 -9.76080 -0.56660 -0.30040
H 1.0000000 -9.44910 -3.64380 0.29290
C 6.0000000 -5.72080 -1.15240 -0.76880
C 6.0000000 -7.94990 -1.20300 0.11160
C 6.0000000 -7.81210 -2.56300 0.37440
O 8.0000000 2.06090 5.63680 -0.68650
O 8.0000000 -1.83810 1.35720 1.14470
O 8.0000000 5.02990 -1.30010 2.54540
O 8.0000000 6.15150 -3.70490 1.47750
O 8.0000000 6.11090 -3.91270 -1.37500
O 8.0000000 3.31040 -1.76370 -3.59420
O 8.0000000 -9.11130 -0.56440 0.41600
O 8.0000000 -8.83900 -3.25610 0.93530
C 6.0000000 1.17860 4.87100 -0.34690
C 6.0000000 -1.69990 1.47640 -0.04970
O 8.0000000 2.79900 -0.24180 1.12000
O 8.0000000 -0.10450 5.28800 -0.32340
O 8.0000000 -2.58520 0.91370 -0.88720
C 6.0000000 1.04000 1.41020 1.13620
C 6.0000000 1.49800 3.54260 0.02330
C 6.0000000 0.59410 0.86140 2.23890
O 8.0000000 3.20010 1.90650 0.22800
O 8.0000000 3.40620 -1.52610 -0.73150
C 6.0000000 2.75850 3.12670 -0.10330
H 1.0000000 -0.16320 3.17680 1.31730
H 1.0000000 1.90540 0.48560 -0.60090
H 1.0000000 -0.89950 3.15550 -1.09580
H 1.0000000 0.01010 1.64140 -1.31580
H 1.0000000 3.47730 3.82620 -0.50370
H 1.0000000 4.64250 -0.15160 0.19130
H 1.0000000 3.73140 -2.65600 1.68150
H 1.0000000 -0.25130 1.29350 2.75370
H 1.0000000 6.41300 -1.96580 0.39160
H 1.0000000 5.18600 -1.46500 -1.77930
H 1.0000000 4.30160 -4.03310 -0.38350
H 1.0000000 4.55630 -3.38110 -3.27750
H 1.0000000 2.97750 -3.45760 -2.45910
H 1.0000000 1.20350 -1.17540 2.05400
H 1.0000000 2.30620 -0.15440 3.00790
H 1.0000000 0.75530 -0.68170 3.70430
H 1.0000000 -4.26500 0.84470 0.34770
H 1.0000000 -3.28680 -0.64190 0.31250
H 1.0000000 -1.43520 6.81270 -0.73920
H 1.0000000 0.18710 7.33090 -0.22160
H 1.0000000 -0.05720 6.67170 -1.85690
H 1.0000000 -4.97760 0.43120 -1.99110
H 1.0000000 -3.99930 -1.05540 -2.02630
H 1.0000000 -7.00400 0.55470 -0.66110
H 1.0000000 -4.66060 -3.00760 -0.75060
H 1.0000000 -6.51780 -4.26420 0.26510
 $END
