 $BASIS GBASIS=N31 NGAUSS=6 NDFUNC=1 NPFUNC=1 $END
 $CONTRL SCFTYP=RHF RUNTYP=OPTIMIZE DFTTYP=B3LYP MAXIT=60 MULT=1 ICHARG=0 $END 
 $SYSTEM MEMDDI=1000 MWORDS=30 $END
 $STATPT NSTEP=999 $END
 $SCF DIRSCF=.TRUE. $END
 $DATA

C1
C 6.0000000 0.46650 1.29830 0.19470
C 6.0000000 -0.99930 1.68960 0.52170
C 6.0000000 0.63900 3.48890 -0.80690
C 6.0000000 -0.82730 3.09120 1.16590
C 6.0000000 1.31790 2.29240 1.02790
C 6.0000000 0.24890 2.02810 -1.15760
C 6.0000000 -2.06320 -0.45760 0.57330
C 6.0000000 -2.69890 -1.46400 1.53610
C 6.0000000 -3.05590 -2.73950 0.76660
C 6.0000000 -3.98690 -2.37820 -0.39490
C 6.0000000 -3.30150 -1.33650 -1.28300
C 6.0000000 4.83300 -2.99930 -0.15760
C 6.0000000 5.12260 -0.60680 -0.31080
C 6.0000000 6.19200 -3.16710 -0.32420
C 6.0000000 6.47990 -0.78910 -0.47660
C 6.0000000 7.01400 -2.06550 -0.48340
C 6.0000000 0.87270 -0.17670 0.21390
C 6.0000000 -4.24900 -0.92590 -2.41200
C 6.0000000 -2.02340 3.50500 2.02550
H 1.0000000 1.20040 5.18750 -1.75600
H 1.0000000 -2.11030 -2.41210 3.22600
H 1.0000000 -3.18600 -3.92330 2.40450
H 1.0000000 -4.70420 -4.25310 -0.66250
H 1.0000000 -4.14350 0.33380 -3.99420
C 6.0000000 4.28740 -1.71410 -0.14970
O 8.0000000 2.10860 -2.49190 0.16730
O 8.0000000 0.95510 4.27430 -1.95810
O 8.0000000 -1.77300 -1.77830 2.57820
O 8.0000000 -3.71640 -3.65630 1.64130
O 8.0000000 -4.26870 -3.54970 -1.16320
O 8.0000000 -3.60010 0.02820 -3.25500
C 6.0000000 2.83280 -1.52670 0.02780
O 8.0000000 -1.77860 0.75600 1.27200
O 8.0000000 2.30960 -0.28540 0.03490
O 8.0000000 -2.96870 -0.18900 -0.49910
C 6.0000000 -1.25240 1.75750 -0.99040
O 8.0000000 1.75380 3.31180 0.09980
O 8.0000000 0.39370 2.94290 1.92970
C 6.0000000 -0.54680 4.07950 0.01470
H 1.0000000 2.14880 1.80760 1.54050
H 1.0000000 0.74070 1.60630 -2.03410
H 1.0000000 -1.13800 -0.87210 0.17290
H 1.0000000 -0.26520 5.04880 0.42610
H 1.0000000 -1.42210 4.18880 -0.62550
H 1.0000000 -3.60260 -1.03410 1.96790
H 1.0000000 -2.14640 -3.19740 0.37770
H 1.0000000 -1.57510 0.80980 -1.42130
H 1.0000000 -1.88220 2.59530 -1.28960
H 1.0000000 -4.91730 -1.96720 -0.00290
H 1.0000000 -2.39260 -1.76260 -1.70790
H 1.0000000 0.59120 -0.61860 1.16970
H 1.0000000 0.36500 -0.70390 -0.59380
H 1.0000000 -2.10400 2.83580 2.88210
H 1.0000000 -1.88280 4.52770 2.37540
H 1.0000000 -2.93540 3.44640 1.43150
H 1.0000000 -4.51830 -1.80460 -2.99800
H 1.0000000 -5.14950 -0.48230 -1.98730
H 1.0000000 4.19200 -3.86020 -0.03790
H 1.0000000 4.70700 0.39000 -0.30540
H 1.0000000 6.61550 -4.16060 -0.33010
H 1.0000000 7.12710 0.06650 -0.60130
H 1.0000000 8.07730 -2.20250 -0.61350
 $END
