 $BASIS GBASIS=N31 NGAUSS=6 NDFUNC=1 NPFUNC=1 $END
 $CONTRL SCFTYP=RHF RUNTYP=OPTIMIZE DFTTYP=B3LYP MAXIT=60 MULT=1 ICHARG=0 $END 
 $SYSTEM MEMDDI=1000 MWORDS=30 $END
 $STATPT NSTEP=999 $END
 $SCF DIRSCF=.TRUE. $END
 $DATA

C1
C 6.0000000 2.49820 -1.56870 0.02680
C 6.0000000 3.69290 0.50750 0.20780
C 6.0000000 -2.44670 -1.56170 0.02410
C 6.0000000 -3.63910 0.52710 0.20440
C 6.0000000 4.98180 -1.62760 0.33110
H 1.0000000 2.41080 2.95590 0.97890
H 1.0000000 -2.56190 2.99520 -0.77630
H 1.0000000 -5.04100 -1.74470 1.22680
C 6.0000000 2.50400 1.22040 0.07350
C 6.0000000 3.68630 -0.87180 0.18420
C 6.0000000 -2.44860 1.23160 0.07060
C 6.0000000 -3.63930 -0.85800 0.18090
O 8.0000000 0.02920 2.45940 -0.46170
O 8.0000000 0.02330 -2.79050 -0.54590
O 8.0000000 2.51590 2.57610 0.09580
O 8.0000000 -2.45370 2.58730 0.09370
O 8.0000000 -4.80880 -1.53410 0.31200
C 6.0000000 0.02730 1.26540 -0.22950
C 6.0000000 0.02480 -1.60570 -0.27580
C 6.0000000 1.30000 0.53150 -0.08620
C 6.0000000 1.30080 -0.87680 -0.10880
C 6.0000000 -1.24530 0.53660 -0.08750
C 6.0000000 -1.24970 -0.87310 -0.11000
H 1.0000000 2.50390 -2.64840 0.00510
H 1.0000000 4.62550 1.03770 0.33200
H 1.0000000 -2.45420 -2.64150 0.00730
H 1.0000000 5.41950 -1.79330 -0.65330
H 1.0000000 5.67300 -1.04830 0.94330
H 1.0000000 4.78990 -2.58800 0.80970
H 1.0000000 -4.56910 1.06240 0.32680
 $END
