 $CONTRL COORD=CART UNITS=ANGS $END

 $DATA

C1
C      6.0      6.9692793575    1.4634217228   -7.4738474357 
C      6.0      5.8416301721    0.8744725723   -6.6302877204 
C      6.0      6.5519210157    2.3329060140   -8.6203417153 
O      8.0      8.3195065347    0.9032625232   -7.4686026342 
C      6.0      4.6635210844    0.3274165691   -7.5393866091 
O      8.0      5.2618216469    1.9066114817   -5.7027113138 
C      6.0      5.1918294470    2.0699383151   -9.2155382885 
O      8.0      6.3187814431    3.6267953117   -8.0221702835 
C      6.0      8.8908742657    0.2271106348   -8.4853425256 
O      8.0      4.8821682911    0.6718437221   -8.9990386920 
C      6.0      5.7141962661    2.7536708948   -4.7313880098 
C      6.0      5.3397717511    2.7915918974  -10.6545911898 
C      6.0      7.2070720404    4.6048618767   -7.9168617210 
C      6.0      8.5187787927   -1.1714572271   -8.4880139156 
O      8.0      9.8104400432    0.6561704103   -9.1932030713 
C      6.0      7.0138363550    3.5125014630   -4.7111292930 
O      8.0      4.9353879855    3.0453919124   -3.8206531804 
O      8.0      6.1003360641    4.1177041610  -10.4429077558 
C      6.0      8.3789357598    4.6940354448   -8.8232495353 
O      8.0      6.9753194752    5.5269346588   -7.1369165922 
C      6.0      8.9576800338   -2.0398441513   -9.4912773070 
C      6.0      7.7984782113   -1.6439429034   -7.3986008687 
C      6.0      8.2664660171    3.0018307376   -5.0641850286 
C      6.0      6.9590254386    4.8584151837   -4.2846625093 
C      6.0      5.9084793119    5.2846753425  -11.1114126977 
C      6.0      9.3932421279    3.7431295325   -8.8287701506 
C      6.0      8.6363585278    6.0111468188   -9.1560196215 
C      6.0      8.6025629862   -3.3751768276   -9.3914257147 
C      6.0      7.3427489506   -2.9279688843   -7.4056930858 
C      6.0      9.3668576313    3.8519838604   -5.2334006462 
C      6.0      8.0981400465    5.6685624382   -4.3341043769 
C      6.0      6.4039413349    6.6063834400  -10.4101253228 
O      8.0      5.2113584546    5.3335312436  -12.1177277005 
C      6.0     10.7107905335    4.1353440246   -8.7959633301 
C      6.0      9.9759116108    6.4148950984   -8.9168307680 
C      6.0      7.7590663507   -3.8035875194   -8.3786463240 
O      8.0      9.1515471720   -4.2947624857  -10.2310354406 
O      8.0      6.5860191983   -3.4246742699   -6.4113465703 
C      6.0      9.2871069200    5.1826992524   -4.8603514947 
O      8.0     10.5349693668    3.3861247586   -5.7579283131 
O      8.0      8.0809583862    6.9713408533   -3.9154819789 
C      6.0      7.4612723153    6.8810780460   -9.4658023391 
C      6.0      5.5544376811    7.6999721518  -10.7361955068 
C      6.0     10.9919641217    5.4754220250   -8.7009210686 
O      8.0     11.6815410981    3.1935358646   -8.6438482415 
O      8.0     10.3602687950    7.7232432428   -8.7513519664 
O      8.0      7.3906284151   -5.1126739693   -8.2680289240 
O      8.0     10.3700830957    6.0100172096   -4.9725127524 
C      6.0      7.3414932350    8.0652004081   -8.6915364107 
C      6.0      5.6213332536    8.9343146944  -10.0750915881 
O      8.0     12.2395156660    5.8262122928   -8.2618260579 
C      6.0      6.4714766245    9.0939401287   -9.0027967057 
O      8.0      8.0433412491    8.2048637528   -7.5039012174 
O      8.0      4.8052446942    9.9663514130  -10.4353081684 
O      8.0      6.4613746584   10.2211243329   -8.2317619868 
O      8.0      4.6379618948   -1.1499206936   -7.3423007518 
C      6.0      3.7227006252   -2.0615811604   -6.8467143697 
C      6.0      3.2421665879   -2.0334586307   -5.3818559926 
O      8.0      3.5040707805   -3.0480609547   -7.5460160324 
C      6.0      3.3545615658   -3.1907577526   -4.4973671797 
C      6.0      2.7836965570   -3.0431234236   -3.1862358928 
C      6.0      2.2368822972   -1.8462186948   -2.7479625865 
C      6.0      2.0732053401   -0.8077028360   -3.6447846637 
C      6.0      2.5593787945   -0.8896405576   -4.9486868470 
O      8.0      1.4325602123    0.3281558492   -3.2345865623 
O      8.0      1.9519755969   -1.6425589345   -1.4185218400 
O      8.0      2.8235972194   -4.0808002917   -2.2637289676 
C      6.0      7.9801925220   -5.5272355704   -1.4259669414 
C      6.0      8.4991019302   -4.1749203610   -0.7475256498 
C      6.0      9.0594708763   -6.5599943872   -2.0576319835 
O      8.0      6.7493556220   -5.2286448677   -2.1803543685 
C      6.0      9.9733841179   -4.0050874017   -0.3548612240 
O      8.0      7.5922650272   -3.7261554090    0.3465244509 
C      6.0     10.3878818948   -6.2326213893   -1.2171119499 
O      8.0      9.3109853798   -6.5856643317   -3.5533206958 
C      6.0      6.7872461070   -4.4499091343   -3.3079471270 
O      8.0     10.7182972305   -4.8244545884   -1.2076237909 
O      8.0     10.2970417859   -2.5500915687   -0.5017988704 
C      6.0      7.8543489172   -2.6605788681    1.1878141415 
C      6.0     11.7266398378   -6.8585990685   -1.6324084743 
C      6.0      8.9787058912   -7.4982185426   -4.5420894358 
C      6.0      6.4053072463   -2.9874406880   -3.0368294390 
O      8.0      7.3633844254   -4.8140331152   -4.3228582437 
C      6.0     11.5540075114   -2.0906171197   -0.7900749969 
C      6.0      7.5401623501   -1.3041414187    0.6158382223 
O      8.0      8.1771505529   -2.8185684162    2.3564154305 
O      8.0     12.3695408105   -6.0257380108   -2.6104751897 
C      6.0      9.7755618894   -7.3870065112   -5.9352270147 
O      8.0      8.2535638795   -8.4610425888   -4.3204923319 
C      6.0      7.1281922942   -1.9368606484   -3.7347154065 
C      6.0      5.5109835396   -2.6455194829   -1.9585207725 
C      6.0     11.5056060821   -0.6312132039   -1.1484863909 
O      8.0     12.5599408863   -2.7514127918   -0.9350538605 
C      6.0      7.0514173817   -0.1679259252    1.3798656946 
C      6.0      7.2180976321   -1.2862390648   -0.8001046966 
C      6.0     11.9586943339   -6.2774034760   -3.8488019464 
C      6.0     10.0081708643   -8.6159817706   -6.6151698869 
C      6.0     10.4733209410   -6.2522000527   -6.4783044458 
C      6.0      7.5102749107   -0.6393084505   -3.2339623308 
C      6.0      5.6705924739   -1.4911394048   -1.0348216737 
C      6.0     11.0559899152    0.3506515184   -0.2687501164 
C      6.0     11.8217559280   -0.2687906276   -2.4702682740 
C      6.0      6.2864996119    0.9683681288    0.8639241250 
C      6.0      5.7184736428    0.0625535962   -1.4759387398 
C      6.0     11.1913767835   -5.1288413087   -4.3662939946 
O      8.0     12.1485133187   -7.3574495299   -4.4176922361 
C      6.0     10.9206575080   -8.7159952102   -7.6962540824 
C      6.0     11.3225173823   -6.3731307622   -7.6071008214 
C      6.0      7.2384244625   -0.1333698349   -1.8278141821 
O      8.0      8.5242476788   -0.0136205124   -3.9219661709 
O      8.0      4.7707130482   -1.7507068711    0.0913744674 
C      6.0     10.7592868748    1.6075243571   -0.7816099765 
C      6.0     11.3684732918    0.9243826384   -3.0135507518 
C      6.0      5.6538895191    1.0911309230   -0.3262890014 
O      8.0      6.2928265043    2.0402329292    1.7328421144 
O      8.0      4.8301773832    0.4596176741   -2.5447258086 
C      6.0     10.6854608702   -5.0325971806   -5.7218762972 
C      6.0     10.3910870201   -4.1091394167   -3.6376514116 
C      6.0     11.5571719299   -7.5950430234   -8.2026527388 
O      8.0     11.2724828850   -9.9331626139   -8.2157112850 
O      8.0     12.1209485392   -5.3435292949   -8.0697886375 
O      8.0      8.0836541958    1.0168248783   -1.5652485617 
C      6.0     10.8181127024    1.8516280294   -2.1520364185 
O      8.0     10.1698621939    2.5495443498    0.0183341038 
O      8.0     11.3236272170    1.0991213978   -4.3712752244 
O      8.0      5.0695676292    2.3127646544   -0.6596524452 
C      6.0     10.4522301609   -3.6227196380   -6.0542230848 
C      6.0     10.0858590865   -2.7386416627   -3.6122291648 
O      8.0     12.5192197720   -7.6726281189   -9.1761529188 
O      8.0     10.0554259161    2.8935068314   -2.5893488286 
C      6.0     10.7415184808   -2.8527218121   -4.8209992002 
O      8.0     10.8781058066   -3.1250295314   -7.2584511370 
O      8.0     12.1024889390   -2.3952706677   -4.6275915904 
O      8.0      3.9562289554   -4.2675272808   -4.8320396418 
H      1.0      7.2412077211    2.2519192189   -6.8177309836 
H      1.0      6.1740467434    0.0945133665   -5.9475777947 
H      1.0      7.3154776712    2.3316979762   -9.3997739157 
H      1.0      3.6887849500    0.7372075483   -7.2592544073 
H      1.0      4.3945630783    2.6365949314   -8.7160589183 
H      1.0      4.3714539008    2.9945911260  -11.1197866041 
H      1.0      5.9481893165    2.1759344689  -11.3298576324 
H      1.0      9.6206709940   -1.6965575282  -10.2811318722 
H      1.0      7.6597840943   -1.0382162903   -6.5211517107 
H      1.0      8.4012520600    1.9462645637   -5.2562799492 
H      1.0      6.0100400031    5.2810929404   -3.9637096047 
H      1.0      9.2015274350    2.7036725413   -8.7077752817 
H      1.0      8.7975437122   -5.1490675482   -9.9017615370 
H      1.0      5.8515717798   -2.8377727812   -6.1555343489 
H      1.0     10.5880064499    2.4184820722   -5.6639749125 
H      1.0      7.2305963593    7.1328587971   -3.4708177902 
H      1.0      4.7947215319    7.5718062954  -11.5050453585 
H      1.0     12.4702829278    3.6933288873   -8.3571500096 
H      1.0      9.6327372896    8.1900870483   -8.2929588345 
H      1.0      6.7595952112   -5.1032546675   -7.5024678646 
H      1.0     10.1397516690    6.7933531006   -4.4402022526 
H      1.0     12.0866526850    6.6197179356   -7.7121894204 
H      1.0      7.8733402974    7.3623465626   -7.0102712421 
H      1.0      4.3663372468    9.7500783793  -11.2720469081 
H      1.0      7.1068974736   10.0556739194   -7.5176959517 
H      1.0      2.3763954039   -0.0691720574   -5.6243683302 
H      1.0      1.1590697811    0.1214847620   -2.3181145926 
H      1.0      2.7942953739   -1.8567315200   -0.9583890905 
H      1.0      2.2416431281   -3.8410790197   -1.5251059875 
H      1.0      7.5786896037   -6.0925824461   -0.5736218467 
H      1.0      8.3714550965   -3.5129148365   -1.5819370350 
H      1.0      8.7438483136   -7.5821348652   -1.8122658798 
H      1.0     10.1637855852   -4.2517121814    0.6918211287 
H      1.0     10.1919362302   -6.5374459022   -0.1809772892 
H      1.0     12.4027188232   -6.7976988460   -0.7700258782 
H      1.0     11.6593657020   -7.9099725527   -1.9229538200 
H      1.0      7.5901562514   -2.2564069313   -4.6566620261 
H      1.0      4.9653649174   -3.4979206893   -1.5617092465 
H      1.0      7.2416506507   -0.1771831314    2.4530275782 
H      1.0      7.9491183102   -1.9293431964   -1.2357279477 
H      1.0      9.5417167288   -9.5268763196   -6.2473764719 
H      1.0     10.8758070944    0.1430861052    0.7780431103 
H      1.0     12.3529562636   -0.9579434785   -3.0961026774 
H      1.0      9.1536132132   -0.6352080275   -4.3302688987 
H      1.0      4.7247735622   -0.9422423058    0.6282474336 
H      1.0      5.8621117247    2.7706836582    1.2395873174 
H      1.0      5.3925079088    0.6247683216   -3.3202521649 
H      1.0      9.3942480178   -4.5243120829   -3.6141799709 
H      1.0     11.1136262168  -10.6133283880   -7.5445472960 
H      1.0     12.5439325960   -4.9294563155   -7.2915887979 
H      1.0      8.3169483599    0.9915982084   -0.6176174391 
H      1.0      9.9515245896    3.2862380077   -0.5961564912 
H      1.0     11.7297679611    0.3258267549   -4.8096752683 
H      1.0      4.7583056944    2.2295894962   -1.5951430019 
H      1.0     12.8317820284   -6.7533670783   -9.3000833314 
H      1.0      9.2307232597    2.4277913030   -2.8525933269 
H      1.0     10.8565329654   -3.7828328889   -7.9788291419 
H      1.0     12.4613449679   -2.8424572138   -3.8299437323 
 $END


