 $BASIS GBASIS=N31 NGAUSS=6 NDFUNC=1 NPFUNC=1 $END
 $CONTRL SCFTYP=RHF RUNTYP=OPTIMIZE DFTTYP=B3LYP MAXIT=60 MULT=1 ICHARG=0 $END 
 $SYSTEM MEMDDI=1000 MWORDS=30 $END
 $STATPT NSTEP=999 $END
 $SCF DIRSCF=.TRUE. $END
 $DATA

C1
O 8.0000000 -0.35740 -1.23700 1.52400
O 8.0000000 0.69160 -1.77550 -0.57160
O 8.0000000 -3.65960 0.62040 -0.28280
O 8.0000000 -3.00190 1.23050 2.45250
O 8.0000000 -1.62710 -0.40260 -1.88450
O 8.0000000 0.16190 -0.91080 4.40370
N 7.0000000 2.43260 -3.45840 -2.76930
C 6.0000000 -2.35530 0.42450 0.26000
C 6.0000000 -2.43870 0.10770 1.77490
C 6.0000000 -1.60250 -0.70160 -0.49290
C 6.0000000 -1.04010 -0.25980 2.36000
C 6.0000000 -0.18380 -0.86280 0.13420
C 6.0000000 -1.12820 -0.75320 3.82450
C 6.0000000 1.23810 -1.42830 -1.87370
C 6.0000000 2.01510 -0.14410 -1.91050
C 6.0000000 1.89280 -2.53680 -2.34550
C 6.0000000 3.42540 -0.07590 -1.78590
C 6.0000000 1.32550 1.09240 -2.02060
C 6.0000000 4.10390 1.15700 -1.74350
C 6.0000000 1.98400 2.33020 -1.93610
C 6.0000000 3.38060 2.36070 -1.79980
H 1.0000000 -1.81620 1.36790 0.11920
H 1.0000000 -3.11760 -0.73890 1.91110
H 1.0000000 -2.13430 -1.65090 -0.38420
H 1.0000000 -0.43340 0.65250 2.38660
H 1.0000000 0.34050 0.09250 0.18320
H 1.0000000 -1.65610 -1.70690 3.87960
H 1.0000000 -1.66760 -0.02760 4.43860
H 1.0000000 -3.50780 0.88970 -1.21400
H 1.0000000 -3.86080 1.39520 2.00900
H 1.0000000 -2.57080 -0.36880 -2.14300
H 1.0000000 0.44400 -1.37280 -2.61690
H 1.0000000 -0.01110 -1.14500 5.34060
H 1.0000000 3.98410 -0.92870 -1.71620
H 1.0000000 0.31350 1.12520 -2.13710
H 1.0000000 5.12230 1.17950 -1.66330
H 1.0000000 1.44860 3.20180 -1.96810
H 1.0000000 3.86570 3.25830 -1.74230
 $END
