 $BASIS GBASIS=N31 NGAUSS=6 NDFUNC=1 NPFUNC=1 $END
 $CONTRL SCFTYP=RHF RUNTYP=OPTIMIZE DFTTYP=B3LYP MAXIT=60 MULT=1 ICHARG=0 $END 
 $SYSTEM MEMDDI=1000 MWORDS=30 $END
 $STATPT NSTEP=999 $END
 $SCF DIRSCF=.TRUE. $END
 $DATA

C1
O 8.0000000 -3.36490 -0.90260 -0.27240
O 8.0000000 8.14290 -0.69270 0.26890
N 7.0000000 -4.89550 0.31840 1.16640
C 6.0000000 -0.44770 0.94260 -0.07120
C 6.0000000 0.15780 -0.43490 0.28840
C 6.0000000 -1.87450 0.79340 0.53930
C 6.0000000 1.57650 -0.63510 -0.24980
C 6.0000000 -2.17020 -0.72140 0.48370
C 6.0000000 -0.94340 -1.40880 -0.11500
C 6.0000000 2.50280 0.48040 0.31940
C 6.0000000 -3.07860 1.41520 -0.17430
C 6.0000000 0.42230 2.00590 0.61790
C 6.0000000 -4.15410 0.30480 -0.10700
C 6.0000000 1.89570 1.90500 0.18160
C 6.0000000 3.97610 0.34760 -0.23890
C 6.0000000 -0.47760 1.21380 -1.59610
C 6.0000000 2.11840 -2.01850 0.14000
C 6.0000000 4.44260 -1.11500 -0.20160
C 6.0000000 -5.13850 0.40590 -1.28520
C 6.0000000 4.91720 1.20760 0.65720
C 6.0000000 -3.47100 2.77610 0.38930
C 6.0000000 3.59980 -2.14650 -0.01750
C 6.0000000 4.07030 0.84200 -1.70240
C 6.0000000 5.92160 -1.37240 -0.37570
C 6.0000000 -6.20580 -0.68760 -1.23260
C 6.0000000 6.40730 0.97140 0.41470
C 6.0000000 -5.87870 -0.76020 1.26240
C 6.0000000 6.76110 -0.50540 0.55850
C 6.0000000 -6.90830 -0.68720 0.12820
C 6.0000000 -7.90350 -1.84170 0.22380
H 1.0000000 0.23440 -0.49840 1.38790
H 1.0000000 -1.85360 1.09390 1.59590
H 1.0000000 1.56390 -0.58400 -1.34400
H 1.0000000 -2.34810 -1.10260 1.49790
H 1.0000000 -1.02820 -1.53570 -1.19890
H 1.0000000 -0.79960 -2.40290 0.32040
H 1.0000000 2.55690 0.29650 1.40520
H 1.0000000 -2.86000 1.57460 -1.23370
H 1.0000000 0.04270 3.01140 0.40020
H 1.0000000 0.37400 1.88680 1.70810
H 1.0000000 2.47460 2.61110 0.78770
H 1.0000000 1.97270 2.25890 -0.85020
H 1.0000000 0.50780 1.14740 -2.06400
H 1.0000000 -1.12110 0.50880 -2.13190
H 1.0000000 -0.84400 2.22640 -1.80080
H 1.0000000 1.86920 -2.25250 1.18260
H 1.0000000 1.63190 -2.78070 -0.48060
H 1.0000000 -4.60140 0.30660 -2.23680
H 1.0000000 -5.63010 1.38690 -1.28840
H 1.0000000 4.71130 0.99520 1.71530
H 1.0000000 4.71220 2.27490 0.51170
H 1.0000000 -2.66870 3.50150 0.21660
H 1.0000000 -4.37510 3.15710 -0.09560
H 1.0000000 -3.64990 2.73980 1.46870
H 1.0000000 3.99290 -3.15970 0.02080
H 1.0000000 -5.38440 1.20890 1.25830
H 1.0000000 3.89520 1.91990 -1.77780
H 1.0000000 3.34550 0.33770 -2.34970
H 1.0000000 5.05900 0.66470 -2.13890
H 1.0000000 6.17340 -2.42640 -0.19960
H 1.0000000 6.20930 -1.18480 -1.41790
H 1.0000000 -6.93500 -0.52670 -2.03540
H 1.0000000 -5.74020 -1.66390 -1.41760
H 1.0000000 6.70160 1.33590 -0.57720
H 1.0000000 6.99540 1.56260 1.12760
H 1.0000000 -6.38850 -0.67830 2.22940
H 1.0000000 -5.36850 -1.73130 1.26550
H 1.0000000 6.59780 -0.82480 1.59540
H 1.0000000 -7.47150 0.25100 0.22700
H 1.0000000 -8.65380 -1.77380 -0.57090
H 1.0000000 -7.40050 -2.81040 0.13310
H 1.0000000 -8.42930 -1.82200 1.18420
H 1.0000000 8.64980 -0.13720 0.88530
 $END
