 $BASIS GBASIS=N31 NGAUSS=6 NDFUNC=1 NPFUNC=1 $END
 $CONTRL SCFTYP=RHF RUNTYP=OPTIMIZE DFTTYP=B3LYP MAXIT=60 MULT=1 ICHARG=0 $END 
 $SYSTEM MEMDDI=1000 MWORDS=30 $END
 $STATPT NSTEP=999 $END
 $SCF DIRSCF=.TRUE. $END
 $DATA

C1
C 6.0000000 -1.79870 -0.60390 0.12530
C 6.0000000 -3.20090 -0.97650 0.61380
C 6.0000000 -4.24210 -0.31960 -0.29760
C 6.0000000 -4.01320 1.19500 -0.30700
C 6.0000000 -2.57960 1.48380 -0.76000
C 6.0000000 2.52500 0.24830 0.73260
C 6.0000000 2.43230 -1.82940 -0.49650
C 6.0000000 -2.32420 2.99160 -0.71460
C 6.0000000 6.69550 0.67330 -0.41760
C 6.0000000 1.37870 2.14920 2.27150
C 6.0000000 1.10400 -4.01230 -1.37200
H 1.0000000 -2.72760 -2.87800 1.12540
H 1.0000000 -5.76460 -1.54470 0.23360
H 1.0000000 -5.86210 1.66900 -0.98390
H 1.0000000 -0.79790 4.21060 -1.24920
H 1.0000000 7.83750 2.19870 -1.10310
C 6.0000000 0.48340 -1.01800 0.65310
C 6.0000000 1.19630 0.09480 1.08730
C 6.0000000 1.10390 -1.97870 -0.13880
C 6.0000000 3.14960 -0.71420 -0.06180
O 8.0000000 -3.35900 -2.39620 0.57370
O 8.0000000 -5.55380 -0.60180 0.19400
O 8.0000000 -4.93280 1.81130 -1.21060
O 8.0000000 -1.02780 3.27130 -1.24680
O 8.0000000 6.92510 2.01970 -0.83770
O 8.0000000 -0.82260 -1.16720 1.00380
O 8.0000000 0.40440 -3.06560 -0.56190
O 8.0000000 0.58710 1.03240 1.86140
C 6.0000000 4.56820 -0.55210 -0.44280
C 6.0000000 5.24890 0.50800 -0.02910
O 8.0000000 -1.66300 0.81860 0.11150
H 1.0000000 -1.64930 -0.99310 -0.88180
H 1.0000000 -3.33650 -0.62280 1.63590
H 1.0000000 -4.13980 -0.71140 -1.30960
H 1.0000000 -4.16560 1.59360 0.69600
H 1.0000000 -2.44040 1.12180 -1.77870
H 1.0000000 3.07700 1.11440 1.06660
H 1.0000000 2.91370 -2.57570 -1.11110
H 1.0000000 5.05050 -1.29710 -1.05810
H 1.0000000 4.76650 1.25300 0.58630
H 1.0000000 -3.07950 3.50610 -1.30850
H 1.0000000 -2.37560 3.33790 0.31760
H 1.0000000 6.93220 -0.00780 -1.23500
H 1.0000000 7.33000 0.44680 0.43930
H 1.0000000 1.73660 2.68350 1.39150
H 1.0000000 0.77320 2.81910 2.88210
H 1.0000000 2.23010 1.79680 2.85390
H 1.0000000 0.43230 -4.82780 -1.63990
H 1.0000000 1.45990 -3.52220 -2.27820
H 1.0000000 1.95340 -4.40890 -0.81590
 $END
