 $BASIS GBASIS=N31 NGAUSS=6 NDFUNC=1 NPFUNC=1 $END
 $CONTRL SCFTYP=RHF RUNTYP=OPTIMIZE DFTTYP=B3LYP MAXIT=60 MULT=1 ICHARG=0 $END 
 $SYSTEM MEMDDI=1000 MWORDS=30 $END
 $STATPT NSTEP=999 $END
 $SCF DIRSCF=.TRUE. $END
 $DATA

C1
C 6.0000000 -0.07219 3.12793 -1.44060
C 6.0000000 -0.69755 3.78611 -2.49644
C 6.0000000 0.13669 4.31729 -3.48406
C 6.0000000 1.52903 4.25732 -3.36549
C 6.0000000 2.11270 3.53862 -2.31667
C 6.0000000 1.29086 2.84055 -1.43230
O 8.0000000 1.79141 1.72530 -0.73156
O 8.0000000 3.48784 3.31760 -2.29092
O 8.0000000 2.33598 4.73914 -4.39603
C 6.0000000 -2.18159 3.67167 -2.80170
O 8.0000000 -2.46139 3.82159 -3.97973
O 8.0000000 -3.24802 3.59656 -1.96919
C 6.0000000 -3.10054 3.03540 -0.65732
O 8.0000000 -2.10564 3.72075 0.10548
C 6.0000000 -1.76679 2.89709 1.21796
C 6.0000000 -2.99258 2.84451 2.14938
C 6.0000000 -4.00708 1.94875 1.31811
C 6.0000000 -4.43357 2.86606 0.14829
O 8.0000000 -5.26034 3.61698 1.07604
O 8.0000000 -5.27123 1.59290 1.90676
C 6.0000000 -6.54397 3.66256 0.73453
C 6.0000000 -6.69262 4.15774 -0.66861
O 8.0000000 -7.34628 4.05051 1.56780
C 6.0000000 -6.21590 3.28996 -1.65535
C 6.0000000 -5.55528 3.88570 -2.74501
C 6.0000000 -5.04690 5.18466 -2.62676
C 6.0000000 -5.27850 5.91041 -1.46196
C 6.0000000 -6.32426 5.50403 -0.64226
O 8.0000000 -4.32333 6.80167 -0.97458
O 8.0000000 -4.09782 5.62920 -3.54418
O 8.0000000 -5.08723 3.12390 -3.81613
C 6.0000000 -6.29531 1.21601 1.07869
C 6.0000000 -6.41143 0.94770 -0.42860
O 8.0000000 -7.31140 0.94674 1.69679
C 6.0000000 -7.04875 -0.29591 -0.57069
C 6.0000000 -7.54782 -0.77713 -1.78144
C 6.0000000 -7.34913 -0.02184 -2.92945
C 6.0000000 -6.96672 1.30833 -2.77516
C 6.0000000 -6.48310 1.81300 -1.55358
O 8.0000000 -7.23669 2.18695 -3.82172
O 8.0000000 -7.80081 -0.47945 -4.16811
O 8.0000000 -8.34916 -1.91783 -1.82774
O 8.0000000 -2.42637 2.64342 3.47203
C 6.0000000 -0.38378 3.26568 1.77956
O 8.0000000 -0.09652 2.22741 2.73755
C 6.0000000 -1.80727 3.79035 3.89436
C 6.0000000 -0.56248 3.82681 4.75954
O 8.0000000 -2.13396 4.89250 3.48113
C 6.0000000 0.39124 4.85254 4.58056
C 6.0000000 0.51459 5.78809 5.61576
C 6.0000000 -0.29330 5.68341 6.75247
C 6.0000000 -0.95272 4.48005 7.00605
C 6.0000000 -0.89761 3.45873 6.06058
O 8.0000000 -1.75899 4.33271 8.13158
O 8.0000000 -0.32517 6.69703 7.71058
O 8.0000000 1.53616 6.73258 5.58756
C 6.0000000 1.45392 4.82570 3.51588
C 6.0000000 1.91894 3.59347 3.04540
C 6.0000000 3.50668 4.64024 1.55081
C 6.0000000 3.12730 5.87752 2.06902
C 6.0000000 2.06014 5.97208 2.97340
C 6.0000000 1.10032 2.35633 3.30022
O 8.0000000 1.52909 1.48147 4.03368
C 6.0000000 2.89406 3.49618 2.05209
O 8.0000000 4.40320 4.56283 0.48323
O 8.0000000 3.74942 7.03659 1.60425
O 8.0000000 1.52940 7.23044 3.23692
O 8.0000000 -0.29904 -3.18760 -6.16673
O 8.0000000 1.85881 -1.36085 -5.13994
C 6.0000000 -1.02927 -2.10031 -5.51074
C 6.0000000 -0.38626 -0.90018 -4.73806
C 6.0000000 0.74244 1.09303 -5.50970
C 6.0000000 1.94271 1.02648 -4.60458
C 6.0000000 1.26686 0.30525 -3.37351
O 8.0000000 0.43987 -0.89829 -3.54916
C 6.0000000 0.72782 -0.49686 -5.64327
O 8.0000000 0.23067 1.20209 -2.99661
O 8.0000000 2.92384 0.42348 -5.52641
O 8.0000000 1.17504 2.22840 -6.31115
C 6.0000000 0.65410 2.37680 -7.51926
C 6.0000000 -0.45904 1.48205 -7.96622
C 6.0000000 -1.71045 1.83956 -7.46656
C 6.0000000 -2.76902 0.94155 -7.54158
C 6.0000000 -2.53833 -0.30097 -8.13044
C 6.0000000 -1.24183 -0.67958 -8.51675
C 6.0000000 -0.16102 0.22524 -8.49588
O 8.0000000 -3.98786 1.21819 -6.91788
O 8.0000000 -3.55673 -1.25651 -8.11956
O 8.0000000 -0.99129 -2.04226 -8.68072
C 6.0000000 2.81897 0.86107 -6.81733
C 6.0000000 2.46198 -0.00633 -8.02290
O 8.0000000 3.46511 1.86326 -7.08020
C 6.0000000 1.26382 -0.20847 -8.77093
C 6.0000000 1.33042 -1.12187 -9.83811
C 6.0000000 2.47710 -1.88826 -10.07581
C 6.0000000 3.68257 -1.48966 -9.50576
C 6.0000000 3.66273 -0.46838 -8.56451
O 8.0000000 0.20589 -1.32102 -10.63892
O 8.0000000 2.45379 -2.96361 -10.96228
O 8.0000000 4.88076 -2.13478 -9.80338
C 6.0000000 -0.60788 0.60694 -2.16398
C 6.0000000 -0.16755 0.21321 -0.77501
O 8.0000000 -1.79917 0.65952 -2.41926
C 6.0000000 -1.08564 -0.53874 -0.04077
C 6.0000000 -0.82888 -0.85515 1.29056
C 6.0000000 0.42773 -0.57288 1.82689
C 6.0000000 1.34569 0.17039 1.07856
C 6.0000000 0.96825 0.73970 -0.14147
O 8.0000000 2.65672 0.30948 1.52457
O 8.0000000 0.76902 -1.02748 3.09917
O 8.0000000 -1.79540 -1.50730 2.04834
C 6.0000000 -1.78583 -4.75377 -3.77837
C 6.0000000 -1.43123 -3.82835 -2.79253
C 6.0000000 -0.15815 -3.25371 -2.83778
C 6.0000000 -0.80754 -5.22941 -4.65101
C 6.0000000 0.49233 -4.71279 -4.57267
C 6.0000000 0.65447 -3.45711 -3.96031
C 6.0000000 1.50707 -5.11498 -5.57619
C 6.0000000 1.95677 -4.08532 -6.38728
C 6.0000000 3.19484 -4.20435 -7.01638
C 6.0000000 3.65989 -5.49776 -7.26118
C 6.0000000 2.82414 -6.57599 -6.95077
C 6.0000000 1.77926 -6.40556 -6.03484
O 8.0000000 -1.21888 -5.95928 -5.76634
O 8.0000000 -3.12603 -5.00325 -4.06650
O 8.0000000 -2.41094 -3.24417 -1.99181
O 8.0000000 0.90676 -7.45233 -5.74853
O 8.0000000 3.01865 -7.81145 -7.56384
O 8.0000000 4.84466 -5.70778 -7.96566
C 6.0000000 1.79707 -2.51822 -4.35660
C 6.0000000 0.94034 -3.00976 -6.68095
O 8.0000000 2.87678 -2.87897 -3.91801
O 8.0000000 1.13696 -2.47331 -7.75184
O 8.0000000 0.91089 3.37915 -8.16503
H 1.0000000 -0.66703 2.48800 -0.85374
H 1.0000000 -0.30397 4.77162 -4.36476
H 1.0000000 3.93691 3.81975 -2.96055
H 1.0000000 1.86839 4.78171 -5.22251
H 1.0000000 -2.80469 2.00701 -0.89044
H 1.0000000 -1.57466 1.84975 0.95168
H 1.0000000 -3.47385 3.82225 2.22804
H 1.0000000 -3.57869 0.99363 0.97421
H 1.0000000 -4.23049 3.94511 0.11821
H 1.0000000 -6.45109 6.04565 0.28998
H 1.0000000 -3.52625 6.33478 -0.74197
H 1.0000000 -3.53543 6.30251 -3.17979
H 1.0000000 -4.74909 2.28383 -3.53386
H 1.0000000 -7.20487 -0.91774 0.30362
H 1.0000000 -7.21291 1.74517 -4.66333
H 1.0000000 -8.11137 -1.37627 -4.12411
H 1.0000000 -8.86838 -2.01218 -1.03707
H 1.0000000 -0.39150 4.31278 2.09963
H 1.0000000 0.37967 3.19313 0.99802
H 1.0000000 -1.54252 2.59975 6.20484
H 1.0000000 -1.85743 5.15394 8.59844
H 1.0000000 0.08245 7.50114 7.41725
H 1.0000000 1.17594 7.60568 5.48520
H 1.0000000 3.11812 2.53630 1.61136
H 1.0000000 4.39748 3.70424 0.07444
H 1.0000000 4.47926 6.83575 1.02882
H 1.0000000 2.17935 7.90613 3.07901
H 1.0000000 -1.78293 -2.54558 -4.85593
H 1.0000000 -1.61879 -1.63259 -6.29984
H 1.0000000 -1.22007 -0.19284 -4.63176
H 1.0000000 -0.17939 1.53395 -5.10865
H 1.0000000 2.29274 2.02918 -4.33096
H 1.0000000 1.99305 0.14466 -2.56395
H 1.0000000 0.40931 -0.74452 -6.62588
H 1.0000000 -1.82220 2.78006 -6.93781
H 1.0000000 -3.96762 2.03558 -6.43218
H 1.0000000 -4.33513 -0.94723 -7.67007
H 1.0000000 -1.76290 -2.58068 -8.55078
H 1.0000000 4.60530 -0.12745 -8.15097
H 1.0000000 0.01703 -2.24405 -10.76063
H 1.0000000 1.79362 -3.59972 -10.71324
H 1.0000000 4.75526 -2.84308 -10.42252
H 1.0000000 -2.02329 -0.84484 -0.49089
H 1.0000000 2.79968 -0.13963 2.34937
H 1.0000000 0.09037 -1.57733 3.47204
H 1.0000000 -2.32430 -0.86506 2.50805
H 1.0000000 0.12814 -2.56092 -2.05518
H 1.0000000 3.73451 -3.32607 -7.35369
H 1.0000000 -0.74738 -5.70636 -6.55101
H 1.0000000 -3.57205 -5.37312 -3.31479
H 1.0000000 -3.22583 -3.13731 -2.46975
H 1.0000000 0.96554 -8.13733 -6.40453
H 1.0000000 3.65598 -7.74830 -8.26598
H 1.0000000 5.37273 -4.91857 -8.00665
 $END
