 $BASIS GBASIS=N31 NGAUSS=6 NDFUNC=1 NPFUNC=1 $END
 $CONTRL SCFTYP=RHF RUNTYP=OPTIMIZE DFTTYP=B3LYP MAXIT=60 MULT=1 ICHARG=0 $END 
 $SYSTEM MEMDDI=1000 MWORDS=30 $END
 $STATPT NSTEP=999 $END
 $SCF DIRSCF=.TRUE. $END
 $DATA

C1
C 6.0000000 1.32790 1.41030 -0.00520
C 6.0000000 0.85500 -0.96510 -0.01100
C 6.0000000 2.67680 1.13600 -0.01000
C 6.0000000 2.20610 -1.22840 -0.01660
H 1.0000000 4.84060 -0.52610 0.86110
C 6.0000000 0.40260 0.35970 -0.00570
C 6.0000000 3.12080 -0.18140 -0.01570
O 8.0000000 -3.71090 1.05990 0.00970
O 8.0000000 4.45200 -0.44650 -0.02080
O 8.0000000 -4.20990 -1.10630 0.00420
C 6.0000000 -3.32010 -0.09200 0.00470
H 1.0000000 -5.13340 -0.81940 0.00810
C 6.0000000 -1.03870 0.64670 -0.00020
C 6.0000000 -1.92960 -0.36890 -0.00070
H 1.0000000 0.98410 2.43400 0.00330
H 1.0000000 0.14520 -1.77910 -0.01170
H 1.0000000 -1.38560 1.66940 0.00420
H 1.0000000 3.39150 1.94570 -0.00960
H 1.0000000 2.55610 -2.25010 -0.02070
H 1.0000000 -1.58260 -1.39160 -0.00510
 $END
