 $BASIS GBASIS=N31 NGAUSS=6 NDFUNC=1 NPFUNC=1 $END
 $CONTRL SCFTYP=RHF RUNTYP=OPTIMIZE DFTTYP=B3LYP MAXIT=60 MULT=1 ICHARG=0 $END 
 $SYSTEM MEMDDI=1000 MWORDS=30 $END
 $STATPT NSTEP=999 $END
 $SCF DIRSCF=.TRUE. $END
 $DATA

C1
C 6.0000000 2.29640 1.83980 0.68340
C 6.0000000 1.84160 0.81940 -1.43430
C 6.0000000 -3.65670 1.13570 1.06460
C 6.0000000 2.88980 2.90990 0.04030
C 6.0000000 2.43510 1.88950 -2.07730
C 6.0000000 -4.34330 -0.74680 -0.87010
C 6.0000000 -4.96650 1.00030 0.65820
C 6.0000000 2.95900 2.93490 -1.34010
C 6.0000000 -5.30640 0.06230 -0.30540
C 6.0000000 1.81060 -1.67010 0.21600
C 6.0000000 4.10740 -2.88240 0.47740
H 1.0000000 -0.25760 -2.73520 -1.89160
C 6.0000000 1.77210 0.79460 -0.05390
O 8.0000000 -0.90190 1.24120 1.75030
O 8.0000000 3.62520 -0.78120 1.42690
O 8.0000000 0.12600 -2.13380 -1.23860
C 6.0000000 3.21500 -1.70180 0.76180
C 6.0000000 -0.33580 -0.43010 0.28200
C 6.0000000 -1.25880 0.43440 0.90730
C 6.0000000 -0.77240 -1.31510 -0.65170
C 6.0000000 -2.67460 0.32350 0.50100
C 6.0000000 -3.01710 -0.62570 -0.47370
C 6.0000000 1.12510 -0.37200 0.64720
O 8.0000000 -2.05840 -1.40790 -1.01270
H 1.0000000 1.22550 -0.24890 1.72560
H 1.0000000 1.84260 -1.71990 -0.87240
H 1.0000000 1.25130 -2.52210 0.60250
H 1.0000000 2.24640 1.81820 1.76200
H 1.0000000 1.43200 0.00280 -2.01030
H 1.0000000 -3.39240 1.86940 1.81170
H 1.0000000 3.29910 3.72670 0.61640
H 1.0000000 2.48970 1.90860 -3.15580
H 1.0000000 4.66390 -2.70390 -0.44260
H 1.0000000 4.80520 -3.01770 1.30370
H 1.0000000 3.49850 -3.77950 0.36550
H 1.0000000 -4.61940 -1.47400 -1.61930
H 1.0000000 -5.73150 1.62720 1.09180
H 1.0000000 3.42200 3.77130 -1.84250
H 1.0000000 -6.33600 -0.03540 -0.61650
 $END
