 $BASIS GBASIS=N21 NGAUSS=3 $END
 $CONTRL SCFTYP=RHF DFTTYP=B3LYP MAXIT=60 MULT=1 ICHARG=0 $END
 $SYSTEM MEMDDI=1000 MWORDS=30 $END
 $SCF DIRSCF=.TRUE. $END
 $ELPOT  IEPOT=1 WHERE=PDC $END
 $PDC PTSEL=GEODESIC CONSTR=CHARGE $END
 $DATA

C1
C 6.0000000 0.52733 -1.11261 -0.44826
C 6.0000000 -0.83494 -0.49465 0.03228
C 6.0000000 -1.94909 -0.78438 -0.99995
C 6.0000000 -1.31241 -1.00899 1.40461
C 6.0000000 -0.46872 1.00653 0.05887
C 6.0000000 -1.26705 2.02222 0.39969
C 6.0000000 0.97668 1.10878 -0.39396
C 6.0000000 1.87603 0.53163 0.74168
C 6.0000000 1.60674 -1.00645 0.65790
C 6.0000000 1.04112 -0.03537 -1.43488
H 1.0000000 0.41079 -2.12375 -0.85205
H 1.0000000 -2.17961 -1.85707 -1.01941
H 1.0000000 -2.86612 -0.24664 -0.73615
H 1.0000000 -1.66873 -0.47850 -2.01160
H 1.0000000 -0.63873 -0.72123 2.21599
H 1.0000000 -2.30010 -0.59930 1.64386
H 1.0000000 -1.39969 -2.10304 1.40118
H 1.0000000 -2.29572 1.86899 0.71781
H 1.0000000 -0.91727 3.05153 0.37134
H 1.0000000 1.27059 2.10719 -0.72901
H 1.0000000 2.92922 0.76554 0.54819
H 1.0000000 1.61835 0.95722 1.71656
H 1.0000000 1.29695 -1.43961 1.61193
H 1.0000000 2.50809 -1.54495 0.34384
H 1.0000000 2.05900 -0.23498 -1.78971
H 1.0000000 0.39615 0.13175 -2.30229
 $END
