 $BASIS GBASIS=N21 NGAUSS=3 $END
 $CONTRL SCFTYP=UHF MAXIT=60 MULT=2 ICHARG=-1 $END
 $SYSTEM MEMDDI=1000 MWORDS=30 $END
 $SCF DIRSCF=.TRUE. $END
 $STATPT OPTTOL=0.0001 NSTEP=999 $END
 $DATA

C1
O 8.0000000 -2.2476782571 -0.0907879442 -0.3261305362
C 6.0000000 -1.2741004231 -0.6361060386 0.2033952557
C 6.0000000 0.0521335565 0.0880063580 0.3336065567
H 1.0000000 0.3085781766 0.1466262801 1.4047743585
O 8.0000000 -0.0571775859 1.3934579270 -0.2655611158
C 6.0000000 1.1716740922 -0.7326674878 -0.3254011664
O 8.0000000 2.4125599352 -0.2505815172 0.2637112533
H 1.0000000 -1.3116565635 -1.6595476150 0.6093171862
H 1.0000000 -1.0142079903 1.4450390580 -0.5699934586
H 1.0000000 1.0195164307 -1.8069872270 -0.1291874014
H 1.0000000 1.1019960130 -0.5510694801 -1.4055469761
H 1.0000000 3.1601629157 -0.5029824131 -0.3413838556
 $END
