 $BASIS GBASIS=N21 NGAUSS=3 $END
 $CONTRL SCFTYP=RHF RUNTYP=OPTIMIZE DFTTYP=B3LYP MAXIT=60 MULT=1 ICHARG=0 $END 
 $SYSTEM MEMDDI=1000 MWORDS=30 $END
 $STATPT NSTEP=999 $END
 $SCF DIRSCF=.TRUE. $END
 $DATA

C1
O 8.0000000 -2.26308340 -0.10372190 -0.31017290
C 6.0000000 -1.28847270 -0.63841420 0.18138320
C 6.0000000 0.04138970 0.07965330 0.30879920
H 1.0000000 0.25124890 0.14534910 1.39365550
O 8.0000000 -0.02048520 1.36828310 -0.25176160
C 6.0000000 1.17854250 -0.74454560 -0.30317830
O 8.0000000 2.40829960 -0.26912010 0.23309840
H 1.0000000 -1.33933870 -1.67189130 0.57837010
H 1.0000000 -0.94358290 1.51709890 -0.52251030
H 1.0000000 1.04314600 -1.80885200 -0.05239510
H 1.0000000 1.13914840 -0.62912960 -1.39384160
H 1.0000000 3.11498810 -0.40230980 -0.40984650
 $END
