 $BASIS GBASIS=N21 NGAUSS=3 $END
 $CONTRL SCFTYP=RHF DFTTYP=B3LYP MAXIT=60 MULT=1 ICHARG=0 $END
 $SYSTEM MEMDDI=1000 MWORDS=30 $END
 $SCF DIRSCF=.TRUE. $END
 $ELPOT  IEPOT=1 WHERE=PDC $END
 $PDC PTSEL=GEODESIC CONSTR=CHARGE $END
 $DATA

C1
H 1.0000000 0.5269723676 -1.7868602745 0.4480968042
O 8.0000000 -1.3066691308 -1.3105096847 -0.7089844960
C 6.0000000 0.7204348891 1.3783545724 0.1673123934
C 6.0000000 2.1812014548 -0.5293946574 0.0987113669
C 6.0000000 1.7516280039 0.6893445166 -0.7571919084
O 8.0000000 -2.1066091928 0.7843091480 -0.2403522880
C 6.0000000 -1.1843397017 -0.2355792179 -0.1286949151
C 6.0000000 -0.0396252534 0.1633980957 0.7859778427
H 1.0000000 -2.8402397215 0.4848593981 -0.8473410701
N 7.0000000 0.9490897509 -0.9451255820 0.8559519874
H 1.0000000 -0.4577364389 0.4252642527 1.7650062714
H 1.0000000 1.2362597604 1.9257206974 0.9628798479
H 1.0000000 0.0304271838 2.0476325251 -0.3485883695
H 1.0000000 2.5534741568 -1.3621349881 -0.5048801856
H 1.0000000 2.9654694703 -0.2315961943 0.8045710269
H 1.0000000 1.2589691434 0.3484711304 -1.6757419269
H 1.0000000 2.5891132582 1.3419362626 -1.0191223812
 $END
