 $BASIS GBASIS=N21 NGAUSS=3 $END
 $CONTRL SCFTYP=RHF RUNTYP=OPTIMIZE DFTTYP=B3LYP MAXIT=60 MULT=1 ICHARG=0 $END 
 $SYSTEM MEMDDI=1000 MWORDS=30 $END
 $STATPT NSTEP=999 $END
 $SCF DIRSCF=.TRUE. $END
 $DATA

C1
H 1.0000000 0.52306 -1.70645 0.01440
O 8.0000000 -1.48063 -1.14343 -0.82577
C 6.0000000 0.72516 1.34062 -0.02250
C 6.0000000 2.20242 -0.52800 0.20605
C 6.0000000 1.91782 0.66520 -0.72112
O 8.0000000 -2.29569 0.71008 0.16185
C 6.0000000 -1.31762 -0.19425 -0.08503
C 6.0000000 -0.03557 0.14142 0.65511
H 1.0000000 -3.07414 0.44320 -0.35655
N 7.0000000 0.88309 -1.00594 0.65889
H 1.0000000 -0.32386 0.42229 1.67539
H 1.0000000 1.07398 2.02761 0.75546
H 1.0000000 0.08762 1.91352 -0.70173
H 1.0000000 2.75203 -1.34238 -0.27534
H 1.0000000 2.79169 -0.20257 1.07497
H 1.0000000 1.62738 0.30550 -1.71577
H 1.0000000 2.77108 1.34167 -0.84070
 $END
