 $BASIS GBASIS=N21 NGAUSS=3 $END
 $CONTRL SCFTYP=RHF DFTTYP=B3LYP MAXIT=60 MULT=1 ICHARG=0 $END
 $SYSTEM MEMDDI=1000 MWORDS=30 $END
 $SCF DIRSCF=.TRUE. $END
 $ELPOT  IEPOT=1 WHERE=PDC $END
 $PDC PTSEL=GEODESIC CONSTR=CHARGE $END
 $DATA

C1
C 6.0000000 -0.0567767216 0.3166943587 -0.3903106064
C 6.0000000 -0.4929439881 -2.1073831749 -0.3903580442
C 6.0000000 1.4139005423 0.0593357068 -0.0237152490
C 6.0000000 -0.6280138768 1.5194067019 0.3656411139
C 6.0000000 1.8727600367 -1.3408196389 -0.4638149704
C 6.0000000 -2.0072193318 1.8813322815 -0.1715933959
C 6.0000000 -2.6242350105 3.0378186667 0.6081818625
C 6.0000000 4.1471753184 2.6262299031 -0.7012361218
H 1.0000000 -1.4654330301 -2.3826421815 -2.0651542825
H 1.0000000 3.5932596198 -2.3416040466 -0.2942262144
H 1.0000000 -1.0109734864 0.2527441895 1.7924617858
H 1.0000000 -2.6572035577 2.8225726105 -1.7405904575
H 1.0000000 -4.1641034438 4.2588757918 0.1291663418
H 1.0000000 2.2704959094 1.1832933612 -1.6278627422
O 8.0000000 -2.4806691772 -3.4885939867 -0.5228675262
O 8.0000000 3.3052754542 1.6250757375 1.3653604039
C 6.0000000 0.9159539635 -2.4107945888 0.0893242630
O 8.0000000 -0.5203779350 -2.1765533528 -1.8072342144
O 8.0000000 3.2147279318 -1.4985560725 0.0764637406
O 8.0000000 -0.7097394884 1.2074586568 1.7876968027
O 8.0000000 -1.4424943051 -3.2224374031 1.5074543147
O 8.0000000 -1.8229447185 2.3005990426 -1.5547704917
O 8.0000000 -3.8022134051 3.3949675366 -0.1997023468
C 6.0000000 -1.5798126887 -3.0217116326 0.1679176644
C 6.0000000 3.2160208227 1.7499967113 0.1382849312
H 1.0000000 -2.1894460849 -3.7954779239 1.8392570086
O 8.0000000 -0.9067397253 -0.7979998050 0.1101851348
N 7.0000000 2.2578049350 1.0969642173 -0.6156975782
H 1.0000000 -0.2052419378 0.4343881430 -1.4661192558
H 1.0000000 1.5369573804 0.1562213853 1.0588882878
H 1.0000000 0.0390303234 2.3749185931 0.2401859325
H 1.0000000 1.8544489212 -1.3917596973 -1.5623366257
H 1.0000000 0.9341283230 -2.3856380397 1.1800174871
H 1.0000000 1.2108871484 -3.4051050778 -0.2637419522
H 1.0000000 -2.6636733820 1.0032430845 -0.0970993014
H 1.0000000 -2.8712744309 2.7192242879 1.6246860411
H 1.0000000 -1.9031971733 3.8661881698 0.6483801094
H 1.0000000 4.9093799330 1.9960905757 -1.1764968960
H 1.0000000 3.5993469140 3.1623606953 -1.4831127328
H 1.0000000 4.6443732220 3.3386761135 -0.0418121202
 $END
