 $BASIS GBASIS=N21 NGAUSS=3 $END
 $CONTRL SCFTYP=RHF RUNTYP=OPTIMIZE DFTTYP=B3LYP MAXIT=60 MULT=1 ICHARG=0 $END 
 $SYSTEM MEMDDI=1000 MWORDS=30 $END
 $STATPT NSTEP=999 $END
 $SCF DIRSCF=.TRUE. $END
 $DATA

C1
C 6.0000000 -0.05611900 0.23622020 -0.32147740
C 6.0000000 -0.50414730 -2.15462630 -0.41252880
C 6.0000000 1.43805950 -0.01349540 0.00514230
C 6.0000000 -0.62648750 1.44515270 0.43929330
C 6.0000000 1.88748380 -1.40463220 -0.46847210
C 6.0000000 -1.95574070 1.93629740 -0.15897690
C 6.0000000 -2.49018080 3.14983400 0.59356840
C 6.0000000 3.97658750 2.75451370 -0.73433850
H 1.0000000 -1.47574810 -2.38834430 -2.06850850
H 1.0000000 3.57332160 -2.41440860 -0.37034990
H 1.0000000 -1.15611650 0.25991210 1.88753620
H 1.0000000 -2.48531210 2.77474330 -1.82816390
H 1.0000000 -3.97835200 4.40983920 0.24460470
H 1.0000000 2.36191810 1.00154910 -1.61303080
O 8.0000000 -2.49437020 -3.53294960 -0.51251340
O 8.0000000 3.04839270 1.93677450 1.32822760
C 6.0000000 0.91979800 -2.48163120 0.03918380
O 8.0000000 -0.55320010 -2.22507250 -1.80809930
O 8.0000000 3.20661030 -1.61567400 0.03149740
O 8.0000000 -0.77883200 1.15085980 1.82335020
O 8.0000000 -1.45705590 -3.31900460 1.48026310
O 8.0000000 -1.71437080 2.27076990 -1.52647360
O 8.0000000 -3.66734270 3.57062180 -0.11574790
C 6.0000000 -1.59438490 -3.08604920 0.16612420
C 6.0000000 3.05877550 1.87876680 0.10408240
H 1.0000000 -2.20164670 -3.87806680 1.76373550
O 8.0000000 -0.89094080 -0.87516980 0.07956260
N 7.0000000 2.25000930 1.02653210 -0.60853370
H 1.0000000 -0.17736130 0.39899120 -1.39804880
H 1.0000000 1.59860090 0.06301060 1.08528550
H 1.0000000 0.10206250 2.25969110 0.37244710
H 1.0000000 1.89695900 -1.42073370 -1.56897500
H 1.0000000 0.95476160 -2.51280480 1.13132810
H 1.0000000 1.20796960 -3.46634180 -0.34607280
H 1.0000000 -2.70272320 1.12911650 -0.09853070
H 1.0000000 -2.72388270 2.87850080 1.62845920
H 1.0000000 -1.73355920 3.94759650 0.58982750
H 1.0000000 5.00143020 2.38347970 -0.62817550
H 1.0000000 3.71726240 2.77122900 -1.79752720
H 1.0000000 3.94907180 3.77260270 -0.33927430
 $END
