 $BASIS GBASIS=N21 NGAUSS=3 $END
 $CONTRL SCFTYP=RHF RUNTYP=OPTIMIZE DFTTYP=B3LYP MAXIT=60 MULT=1 ICHARG=0 $END 
 $SYSTEM MEMDDI=1000 MWORDS=30 $END
 $STATPT NSTEP=999 $END
 $SCF DIRSCF=.TRUE. $END
 $DATA

C1
N 7.0000000 1.60193 1.85797 0.29191
C 6.0000000 1.41236 0.42171 0.46619
H 1.0000000 1.35961 0.20125 1.53986
C 6.0000000 0.15952 -0.20133 -0.21428
C 6.0000000 -1.16673 0.29118 0.38080
C 6.0000000 -2.39097 -0.35058 -0.28639
C 6.0000000 -3.72061 0.12164 0.30786
N 7.0000000 -4.85116 -0.50200 -0.39127
C 6.0000000 2.64516 -0.27868 -0.08289
O 8.0000000 3.32122 0.12044 -1.00786
O 8.0000000 2.88965 -1.45459 0.54534
H 1.0000000 1.92925 2.06122 -0.64963
H 1.0000000 0.74494 2.37316 0.46330
H 1.0000000 0.19649 0.02496 -1.28856
H 1.0000000 0.21025 -1.29355 -0.11178
H 1.0000000 -1.17928 0.07723 1.45955
H 1.0000000 -1.24101 1.38349 0.27983
H 1.0000000 -2.39363 -0.13478 -1.36233
H 1.0000000 -2.32341 -1.44473 -0.18935
H 1.0000000 -3.71694 -0.06713 1.39660
H 1.0000000 -3.81028 1.20752 0.17664
H 1.0000000 -4.86510 -1.50755 -0.23637
H 1.0000000 -5.73800 -0.13364 -0.05858
H 1.0000000 3.65502 -1.86204 0.10404
 $END
