 $BASIS GBASIS=N21 NGAUSS=3 $END
 $CONTRL SCFTYP=UHF MAXIT=60 MULT=2 ICHARG=-1 $END
 $SYSTEM MEMDDI=1000 MWORDS=30 $END
 $SCF DIRSCF=.TRUE. $END
 $STATPT OPTTOL=0.0001 NSTEP=999 $END
 $DATA

C1
N 7.0000000 1.5435232198 1.8796973494 0.2819651854
C 6.0000000 1.4152681287 0.4398028170 0.4984357326
H 1.0000000 1.3914536600 0.2068528252 1.5704199752
C 6.0000000 0.1747420930 -0.2489616649 -0.1632270906
C 6.0000000 -1.1583314197 0.2854520739 0.3956992836
C 6.0000000 -2.3817322769 -0.3913871566 -0.2572287892
C 6.0000000 -3.7161643803 0.1312381260 0.3080186040
N 7.0000000 -4.8435123724 -0.5160557515 -0.4032543980
C 6.0000000 2.6548912938 -0.2088333614 -0.0852484538
O 8.0000000 3.4457874748 0.2972187331 -0.8729757749
O 8.0000000 2.7523274389 -1.5185476654 0.3422597148
H 1.0000000 1.9867048152 2.0871025620 -0.6146647180
H 1.0000000 0.6878850004 2.4072884190 0.4437657513
H 1.0000000 0.2187701479 -0.0722842271 -1.2464859874
H 1.0000000 0.2502082408 -1.3277584835 0.0130889230
H 1.0000000 -1.1844205044 0.1236620683 1.4830675856
H 1.0000000 -1.2151953685 1.3692239779 0.2222135393
H 1.0000000 -2.3841792954 -0.2206158332 -1.3396364459
H 1.0000000 -2.3231450571 -1.4775258211 -0.0951043127
H 1.0000000 -3.7186470112 -0.0085771856 1.4066831689
H 1.0000000 -3.7808713881 1.2095462936 0.1188921978
H 1.0000000 -4.8896056459 -1.5197833518 -0.1983175399
H 1.0000000 -5.7434794236 -0.0815277798 -0.1785372554
H 1.0000000 3.5460026303 -1.9340569637 -0.0971988958
 $END
