 $BASIS GBASIS=N21 NGAUSS=3 $END
 $CONTRL SCFTYP=RHF DFTTYP=B3LYP MAXIT=60 MULT=1 ICHARG=0 $END
 $SYSTEM MEMDDI=1000 MWORDS=30 $END
 $SCF DIRSCF=.TRUE. $END
 $ELPOT  IEPOT=1 WHERE=PDC $END
 $PDC PTSEL=GEODESIC CONSTR=CHARGE $END
 $DATA

C1
C 6.0000000 2.47269 0.25561 0.01418
C 6.0000000 1.09703 -0.27882 0.01248
C 6.0000000 0.03633 0.55222 0.01447
C 6.0000000 -1.38232 0.18473 0.00835
C 6.0000000 -2.34734 1.21011 -0.01303
C 6.0000000 -3.71178 0.91487 -0.02295
C 6.0000000 -4.13852 -0.41503 -0.01037
C 6.0000000 -3.19135 -1.44684 0.01250
C 6.0000000 -1.83068 -1.15168 0.02169
O 8.0000000 2.79331 1.43195 0.03167
O 8.0000000 3.37759 -0.75774 -0.00976
C 6.0000000 4.76138 -0.36502 -0.01454
H 1.0000000 1.00332 -1.35958 0.00514
H 1.0000000 0.25330 1.61974 0.01800
H 1.0000000 -2.01881 2.24633 -0.02293
H 1.0000000 -4.43906 1.72158 -0.04038
H 1.0000000 -5.19932 -0.64898 -0.01783
H 1.0000000 -3.51685 -2.48319 0.02350
H 1.0000000 -1.11149 -1.96449 0.04044
H 1.0000000 4.97132 0.28723 -0.86613
H 1.0000000 5.01183 0.16243 0.90985
H 1.0000000 5.32600 -1.29438 -0.09113
 $END
