 $BASIS GBASIS=N31 NGAUSS=6 NDFUNC=1 NPFUNC=1 $END
 $CONTRL SCFTYP=RHF RUNTYP=OPTIMIZE DFTTYP=B3LYP MAXIT=60 MULT=1 ICHARG=0 $END 
 $SYSTEM MEMDDI=1000 MWORDS=30 $END
 $STATPT NSTEP=999 $END
 $SCF DIRSCF=.TRUE. $END
 $DATA

C1
C 6.0000000 1.63470 -0.23020 0.00380
C 6.0000000 0.16090 -0.25710 0.00380
C 6.0000000 -0.56640 0.94170 0.01640
O 8.0000000 0.08300 2.13260 0.02860
C 6.0000000 -1.95260 0.90420 0.01580
C 6.0000000 -2.61230 -0.30890 0.00280
C 6.0000000 -1.89770 -1.49540 -0.00920
C 6.0000000 -0.51970 -1.47730 -0.01460
O 8.0000000 2.22290 0.83290 0.01470
O 8.0000000 2.32960 -1.38470 -0.00270
H 1.0000000 0.27110 2.48700 -0.85120
H 1.0000000 -2.51700 1.82500 0.02580
H 1.0000000 -3.69210 -0.33260 0.00240
H 1.0000000 -2.42280 -2.43910 -0.01850
H 1.0000000 0.03330 -2.40490 -0.02400
H 1.0000000 3.29420 -1.31650 -0.00250
 $END
