 $BASIS GBASIS=N21 NGAUSS=3 $END
 $CONTRL SCFTYP=UHF MAXIT=60 MULT=2 ICHARG=1 $END
 $SYSTEM MEMDDI=1000 MWORDS=30 $END
 $SCF DIRSCF=.TRUE. $END
 $STATPT OPTTOL=0.0001 NSTEP=999 $END
 $DATA

C1
C 6.0000000 2.5758763654 0.2772359684 0.0019166812
C 6.0000000 1.1508005331 -1.8145008978 -0.1503607994
H 1.0000000 -0.2155917237 2.2005999667 -0.6151775657
H 1.0000000 -0.2016867068 2.4331825223 1.0377559078
O 8.0000000 -1.9611182908 0.6440835828 -0.8985196676
O 8.0000000 -1.7259918075 -1.1425733678 0.5123702677
C 6.0000000 -1.2947367350 0.0373859390 -0.0642247141
H 1.0000000 -2.6157849090 -1.3773306720 0.1213089013
C 6.0000000 0.0830247578 0.4580047184 0.4315464045
C 6.0000000 1.1937171677 -0.2887235727 -0.3812717080
N 7.0000000 0.2362701127 1.9211832351 0.2649371509
H 1.0000000 0.1835410425 0.1867533898 1.4855863365
H 1.0000000 1.0041001442 -0.0739847609 -1.4432140149
H 1.0000000 2.8117973344 0.0122768048 1.0409964809
H 1.0000000 3.3514449862 -0.1466785433 -0.6464365030
H 1.0000000 2.5616310966 1.3648070678 -0.0871289229
H 1.0000000 1.8945816698 -2.3097537757 -0.7844316051
H 1.0000000 1.3920344027 -2.0369170848 0.8969917495
H 1.0000000 0.1639505598 -2.2315005200 -0.3617443798
 $END
