 $BASIS GBASIS=N21 NGAUSS=3 $END
 $CONTRL SCFTYP=RHF RUNTYP=OPTIMIZE DFTTYP=B3LYP MAXIT=60 MULT=1 ICHARG=0 $END 
 $SYSTEM MEMDDI=1000 MWORDS=30 $END
 $STATPT NSTEP=999 $END
 $SCF DIRSCF=.TRUE. $END
 $DATA

C1
C 6.0000000 2.60473 0.24774 0.09834
C 6.0000000 1.12914 -1.76415 -0.32619
H 1.0000000 -0.13714 2.16544 -0.71128
H 1.0000000 -0.45212 2.39934 0.87992
O 8.0000000 -1.82886 0.19223 -1.05632
O 8.0000000 -1.81707 -0.91122 0.90830
C 6.0000000 -1.26789 -0.08091 -0.01369
H 1.0000000 -2.67049 -1.21560 0.55192
C 6.0000000 0.09584 0.46813 0.41188
C 6.0000000 1.22976 -0.23177 -0.38859
N 7.0000000 0.16450 1.91920 0.22979
H 1.0000000 0.23286 0.24885 1.47667
H 1.0000000 1.10264 0.07605 -1.43711
H 1.0000000 2.79079 -0.08412 1.12842
H 1.0000000 3.39750 -0.16969 -0.53266
H 1.0000000 2.67443 1.33745 0.07574
H 1.0000000 1.95570 -2.21873 -0.88260
H 1.0000000 1.18690 -2.12418 0.70865
H 1.0000000 0.19664 -2.14051 -0.76029
 $END
