 $BASIS GBASIS=N21 NGAUSS=3 $END
 $CONTRL SCFTYP=RHF RUNTYP=OPTIMIZE DFTTYP=B3LYP MAXIT=60 MULT=1 ICHARG=0 $END 
 $SYSTEM MEMDDI=1000 MWORDS=30 $END
 $STATPT NSTEP=999 $END
 $SCF DIRSCF=.TRUE. $END
 $DATA

C1
O 8.0000000 -1.59615660 1.40966850 0.58726740
H 1.0000000 -0.87961600 0.72069560 0.60836440
H 1.0000000 -1.85167540 1.57470600 1.50277620
O 8.0000000 3.37873080 3.51897860 0.42851050
H 1.0000000 3.72394170 3.33177930 1.30946310
H 1.0000000 2.65257680 4.17279340 0.54298650
O 8.0000000 -0.49322020 3.32749150 -0.90596260
H 1.0000000 -1.07496500 3.53496530 -1.64744450
H 1.0000000 -0.98108670 2.67510080 -0.32986880
O 8.0000000 1.88462490 1.61241800 -0.97353660
H 1.0000000 2.54398650 2.17004240 -0.50478490
H 1.0000000 1.15573490 2.22174970 -1.19013560
O 8.0000000 1.11275520 5.09588650 0.52346540
H 1.0000000 0.46037840 4.57666630 0.00333390
H 1.0000000 1.09534330 5.99661340 0.17912470
O 8.0000000 0.55680170 -0.18876900 0.49385500
H 1.0000000 0.56781730 -1.05778940 0.07570830
H 1.0000000 1.15719850 0.40026280 -0.04090220
 $END
