 $BASIS GBASIS=N21 NGAUSS=3 $END
 $CONTRL SCFTYP=RHF DFTTYP=B3LYP MAXIT=60 MULT=1 ICHARG=0 $END
 $SYSTEM MEMDDI=1000 MWORDS=30 $END
 $SCF DIRSCF=.TRUE. $END
 $ELPOT  IEPOT=1 WHERE=PDC $END
 $PDC PTSEL=GEODESIC CONSTR=CHARGE $END
 $DATA

C1
O 8.0000000 -1.4014998189 1.5271992212 0.5734888312
H 1.0000000 -0.3309512231 0.6181170106 0.6123319044
H 1.0000000 -1.5890875816 1.8959916259 1.4743897598
O 8.0000000 3.0651474738 3.3356165209 0.4387384947
H 1.0000000 3.2623777083 2.9795961184 1.3427053349
H 1.0000000 2.2803922912 4.0823603940 0.5286950602
O 8.0000000 -0.2723705867 3.2451400270 -0.8202593889
H 1.0000000 -0.7437635887 3.5557772150 -1.6347037438
H 1.0000000 -1.0168775004 2.3369218315 -0.0533602225
O 8.0000000 1.7224562248 1.7565830949 -0.9208043449
H 1.0000000 2.4462647370 2.3659471832 -0.3711100901
H 1.0000000 0.8646940109 2.3958360109 -1.0623385018
O 8.0000000 1.0984729340 4.8685916140 0.4753037569
H 1.0000000 0.4009966397 4.2394140140 -0.0806653228
H 1.0000000 1.2679241305 5.6909696651 -0.0520375905
O 8.0000000 0.6035589259 0.0612392990 0.4974814543
H 1.0000000 0.4026775275 -0.7867025569 0.0251758989
H 1.0000000 1.3527577958 0.9246614113 -0.3108110900
 $END
