 $BASIS GBASIS=N21 NGAUSS=3 $END
 $CONTRL SCFTYP=UHF MAXIT=60 MULT=2 ICHARG=-1 $END
 $SYSTEM MEMDDI=1000 MWORDS=30 $END
 $SCF DIRSCF=.TRUE. $END
 $STATPT OPTTOL=0.0001 NSTEP=999 $END
 $DATA

C1
C 6.0000000 1.2475998792 0.9188397251 0.3450128963
C 6.0000000 1.2973340885 -1.4880344483 0.3323649247
C 6.0000000 2.6201134320 0.9433965292 0.1035139563
C 6.0000000 2.6687605497 -1.4675049543 0.0936375600
C 6.0000000 -0.9297648765 -0.3445765904 0.7373607277
H 1.0000000 -1.7338364352 2.2164206276 -1.2853028561
H 1.0000000 -2.3173677928 2.2093026528 0.2779799825
H 1.0000000 5.0703207955 0.6278535954 -0.3207571595
C 6.0000000 0.5631115979 -0.2993622092 0.4653173224
C 6.0000000 3.3421209997 -0.2478574773 -0.0211196125
O 8.0000000 -4.1521836002 0.7257217261 0.0970971464
O 8.0000000 -3.4156614056 -1.4041975184 -0.3238424629
O 8.0000000 4.7104669953 -0.2950071510 -0.2579900860
C 6.0000000 -3.2388842728 -0.0424124364 -0.1875577615
H 1.0000000 -4.3747728949 -1.6220691179 -0.1512967586
C 6.0000000 -1.7757425597 0.3375483387 -0.3827756323
N 7.0000000 -1.6161763371 1.8041263979 -0.3546161927
H 1.0000000 -1.4393769582 -0.0598811193 -1.3444778401
H 1.0000000 -1.2587320679 -1.3850345268 0.8163841519
H 1.0000000 -1.1663453109 0.1634479100 1.6812421772
H 1.0000000 0.6758234569 1.8356848955 0.4039636273
H 1.0000000 0.7887498122 -2.4428887526 0.4207938158
H 1.0000000 3.1309708701 1.8978278072 0.0109432666
H 1.0000000 3.2391920349 -2.3817539034 -0.0074351930
 $END
