 $BASIS GBASIS=N21 NGAUSS=3 $END
 $CONTRL SCFTYP=RHF MAXIT=60 MULT=1 ICHARG=0 $END
 $SYSTEM MEMDDI=1000 MWORDS=30 $END
 $SCF DIRSCF=.TRUE. $END
 $DATA

C1
O 8.0000000 -1.7806591866 0.9430936885 -0.5109505863
H 1.0000000 -1.0546552962 0.1840590839 -0.5384073990
H 1.0000000 -1.8994902076 1.1937606528 0.6894712801
O 8.0000000 1.8243621023 1.9719512111 1.5731773503
H 1.0000000 1.3490672085 1.1184368966 1.9610039231
H 1.0000000 1.0983722426 2.7309379576 1.6005225290
O 8.0000000 -0.3115907127 2.9415360862 -1.0436649743
H 1.0000000 -0.4642362921 3.6322633140 -1.7357931134
H 1.0000000 -1.3050332513 1.7965344292 -0.8987040986
O 8.0000000 1.7053022944 1.4216851947 -0.7985229919
H 1.0000000 1.9434923176 1.7212758886 0.3727336074
H 1.0000000 0.9620021964 2.1070952558 -1.0859462713
O 8.0000000 -0.1929068155 3.4921606680 1.3184689406
H 1.0000000 -0.2748515708 3.3620770890 0.1063849889
H 1.0000000 -0.2895515052 4.4218981120 1.6432400112
O 8.0000000 0.2367669436 -0.5767805983 -0.2563905203
H 1.0000000 0.3346622177 -1.5062314292 -0.5818827922
H 1.0000000 1.2159756810 0.4947732122 -0.7268125608
O 8.0000000 0.3557441134 -0.0268620437 2.1059422984
H 1.0000000 0.3188304550 -0.4469156334 0.9561982511
H 1.0000000 0.5075983151 -0.7181009132 2.7975417201
O 8.0000000 -1.6609292925 1.4934679290 1.8606587780
H 1.0000000 -0.9177691369 0.8079293550 2.1479579057
H 1.0000000 -1.1718828201 2.4204842936 1.7891640240
 $END
