 $BASIS GBASIS=N21 NGAUSS=3 $END
 $CONTRL SCFTYP=UHF MAXIT=60 MULT=2 ICHARG=-1 $END
 $SYSTEM MEMDDI=1000 MWORDS=30 $END
 $SCF DIRSCF=.TRUE. $END
 $STATPT OPTTOL=0.0001 NSTEP=999 $END
 $DATA

C1
N 7.0000000 -0.4636373056 1.7804954212 -0.5659027914
C 6.0000000 -0.5414580847 0.3161002788 -0.4460041015
H 1.0000000 -0.4094665651 -0.1386813841 -1.4317850781
C 6.0000000 0.5724335497 -0.2109228335 0.4986142559
C 6.0000000 1.9940025855 0.1435534512 0.0077402430
C 6.0000000 3.0205675221 -0.1451218855 1.1266594481
C 6.0000000 2.3646183338 -0.6462114536 -1.2669183919
C 6.0000000 -1.8888282505 -0.1363294971 0.1013489670
O 8.0000000 -2.7684437753 0.5821748122 0.5634022997
O 8.0000000 -1.9903342934 -1.5143501479 0.0525647702
H 1.0000000 -1.0030895843 2.1214478680 -1.3683572756
H 1.0000000 -0.8386904965 2.2171109223 0.2847690855
H 1.0000000 0.4124212275 0.2396707484 1.4887393072
H 1.0000000 0.4581314024 -1.2961636688 0.5990291917
H 1.0000000 1.9899363663 1.2146933046 -0.2236022278
H 1.0000000 2.7958179304 0.4421700311 2.0250850418
H 1.0000000 3.0026283476 -1.2091453243 1.3967087769
H 1.0000000 4.0348849658 0.1066450380 0.7949624750
H 1.0000000 1.6792336252 -0.4231923883 -2.0923276668
H 1.0000000 3.3786818501 -0.3882365166 -1.5944633713
H 1.0000000 2.3312281532 -1.7253667358 -1.0683558132
H 1.0000000 -2.8646375044 -1.7836400402 0.4528128556
 $END
