 $BASIS GBASIS=N21 NGAUSS=3 $END
 $CONTRL SCFTYP=RHF RUNTYP=OPTIMIZE DFTTYP=B3LYP MAXIT=60 MULT=1 ICHARG=0 $END 
 $SYSTEM MEMDDI=1000 MWORDS=30 $END
 $STATPT NSTEP=999 $END
 $SCF DIRSCF=.TRUE. $END
 $DATA

C1
N 7.0000000 -0.50544 1.75378 -0.63020
C 6.0000000 -0.54426 0.31088 -0.43050
H 1.0000000 -0.40900 -0.17786 -1.40152
C 6.0000000 0.58998 -0.14292 0.52057
C 6.0000000 2.01798 0.14828 0.01537
C 6.0000000 3.03277 -0.16029 1.12891
C 6.0000000 2.35938 -0.63512 -1.26156
C 6.0000000 -1.88046 -0.18283 0.13149
O 8.0000000 -2.68327 0.49756 0.73683
O 8.0000000 -2.07964 -1.50502 -0.10408
H 1.0000000 -1.16259 2.03609 -1.35285
H 1.0000000 -0.79568 2.22888 0.22254
H 1.0000000 0.44133 0.36454 1.48450
H 1.0000000 0.48381 -1.21892 0.71062
H 1.0000000 2.07287 1.21888 -0.21682
H 1.0000000 2.83181 0.43107 2.02985
H 1.0000000 2.99984 -1.22094 1.41151
H 1.0000000 4.05464 0.06381 0.80221
H 1.0000000 1.70741 -0.36603 -2.09925
H 1.0000000 3.38937 -0.43077 -1.57505
H 1.0000000 2.27115 -1.71716 -1.09688
H 1.0000000 -2.92600 -1.74921 0.30903
 $END
