 $BASIS GBASIS=N21 NGAUSS=3 $END
 $CONTRL SCFTYP=UHF MAXIT=60 MULT=2 ICHARG=1 $END
 $SYSTEM MEMDDI=1000 MWORDS=30 $END
 $SCF DIRSCF=.TRUE. $END
 $STATPT OPTTOL=0.0001 NSTEP=999 $END
 $DATA

C1
C 6.0000000 -1.7490373551 0.0642315777 -0.4693473103
H 1.0000000 -1.4837665225 -0.6131941929 -1.2882378885
C 6.0000000 -0.9385355405 -0.2924703482 0.8044097794
C 6.0000000 0.5578503178 -0.1861260827 0.5587442105
C 6.0000000 1.2210385776 1.0464170476 0.6712511076
C 6.0000000 2.5803303461 1.1619299704 0.4008543725
C 6.0000000 3.3177801857 0.0395266159 0.0074758586
C 6.0000000 2.6717068649 -1.1938715533 -0.1070556239
C 6.0000000 1.3067498292 -1.3004520538 0.1655878006
O 8.0000000 4.6710131176 0.2258160966 -0.2448510767
H 1.0000000 -1.2283426770 0.3816927803 1.6201140465
H 1.0000000 -1.1876422647 -1.3132889909 1.1191306821
H 1.0000000 0.6641485188 1.9254758159 0.9800910173
H 1.0000000 3.0960274626 2.1092552613 0.4902488396
H 1.0000000 3.2311964432 -2.0755117362 -0.4056648666
H 1.0000000 0.8204928827 -2.2666543181 0.0748621823
H 1.0000000 5.0852296761 -0.6349879215 -0.5141784807
H 1.0000000 -2.8265906928 -0.0149961618 -0.2826980459
H 1.0000000 -1.5236891696 1.0878281936 -0.7875266045
 $END
