 $BASIS GBASIS=N21 NGAUSS=3 $END
 $CONTRL SCFTYP=RHF RUNTYP=OPTIMIZE DFTTYP=B3LYP MAXIT=60 MULT=1 ICHARG=0 $END 
 $SYSTEM MEMDDI=1000 MWORDS=30 $END
 $STATPT NSTEP=999 $END
 $SCF DIRSCF=.TRUE. $END
 $DATA

C1
C 6.0000000 -1.76731 0.06704 -0.45712
H 1.0000000 -1.52938 -0.59523 -1.29627
C 6.0000000 -0.92738 -0.29143 0.78182
C 6.0000000 0.56442 -0.18409 0.54097
C 6.0000000 1.23072 1.04559 0.65599
C 6.0000000 2.59311 1.16623 0.39822
C 6.0000000 3.32838 0.03956 0.01463
C 6.0000000 2.68750 -1.19698 -0.10282
C 6.0000000 1.32031 -1.29799 0.15940
O 8.0000000 4.66570 0.20910 -0.22557
H 1.0000000 -1.21334 0.36699 1.61183
H 1.0000000 -1.17275 -1.31193 1.10043
H 1.0000000 0.67165 1.92858 0.95792
H 1.0000000 3.10335 2.11938 0.49311
H 1.0000000 3.25451 -2.07966 -0.39325
H 1.0000000 0.83618 -2.26763 0.06707
H 1.0000000 5.04846 -0.63953 -0.48477
H 1.0000000 -2.83884 -0.02151 -0.24675
H 1.0000000 -1.56933 1.09413 -0.78163
 $END
