 $BASIS GBASIS=N21 NGAUSS=3 $END
 $CONTRL SCFTYP=RHF DFTTYP=B3LYP MAXIT=60 MULT=1 ICHARG=-1 $END
 $SYSTEM MEMDDI=1000 MWORDS=30 $END
 $SCF DIRSCF=.TRUE. $END
 $ELPOT  IEPOT=1 WHERE=PDC $END
 $PDC PTSEL=CHELPG CONSTR=CHARGE $END
 $DATA

C1
C 6.0000000 1.1847484836 0.4929323043 0.3625386195
H 1.0000000 1.3296060401 0.7870686000 1.4118414888
C 6.0000000 -0.1443783840 -0.2719136572 0.1764651559
C 6.0000000 -1.4044029703 0.5354722703 0.5220892908
C 6.0000000 -2.6936786927 -0.0784995941 -0.2086709297
O 8.0000000 -2.4389494828 -0.7590991270 -1.2601634982
O 8.0000000 -3.8063317606 0.2145460822 0.3242251544
H 1.0000000 -0.3063147959 -0.5796440551 -0.8645041326
H 1.0000000 -0.1214055052 -1.1928131132 0.7781544478
H 1.0000000 -1.6061534683 0.5866304073 1.5983943631
H 1.0000000 -1.2855532826 1.5704770068 0.1577487254
H 1.0000000 2.0515389030 -0.1121999317 0.0561856930
H 1.0000000 1.1792049156 1.4099228073 -0.2426343781
 $END
