 $BASIS GBASIS=N21 NGAUSS=3 $END
 $CONTRL SCFTYP=RHF RUNTYP=OPTIMIZE DFTTYP=B3LYP MAXIT=60 MULT=1 ICHARG=-1 $END 
 $SYSTEM MEMDDI=1000 MWORDS=30 $END
 $STATPT NSTEP=999 $END
 $SCF DIRSCF=.TRUE. $END
 $DATA

C1
C 6.0000000 1.17558 0.48277 0.42818
H 1.0000000 1.24179 0.71242 1.50068
C 6.0000000 -0.13242 -0.24045 0.08516
C 6.0000000 -1.40241 0.54352 0.41912
C 6.0000000 -2.72864 -0.11773 -0.13078
O 8.0000000 -2.58362 -0.85518 -1.14126
O 8.0000000 -3.77333 0.19777 0.48934
H 1.0000000 -0.17965 -0.48572 -0.98138
H 1.0000000 -0.15841 -1.20900 0.60601
H 1.0000000 -1.50663 0.69707 1.50222
H 1.0000000 -1.33016 1.55158 -0.02386
H 1.0000000 2.06216 -0.11297 0.16588
H 1.0000000 1.25367 1.43880 -0.10764
 $END
