 $BASIS GBASIS=N21 NGAUSS=3 $END
 $CONTRL SCFTYP=UHF MAXIT=60 MULT=2 ICHARG=-1 $END
 $SYSTEM MEMDDI=1000 MWORDS=30 $END
 $SCF DIRSCF=.TRUE. $END
 $STATPT OPTTOL=0.0001 NSTEP=999 $END
 $DATA

C1
C 6.0000000 2.55806 -1.10163 0.29447
C 6.0000000 2.50420 -2.58020 -0.02301
O 8.0000000 3.52611 -0.53063 0.75001
O 8.0000000 1.36790 -0.51784 0.01006
C 6.0000000 1.12092 0.91205 0.24626
C 6.0000000 1.42216 1.29732 1.70340
C 6.0000000 1.92140 1.76709 -0.71804
C 6.0000000 2.45727 1.37689 -1.87481
C 6.0000000 -0.38215 1.07297 -0.09627
C 6.0000000 -1.36938 0.32096 0.82065
C 6.0000000 -2.79864 0.50827 0.37948
C 6.0000000 -3.63700 -0.40126 -0.14832
C 6.0000000 -3.28613 -1.84590 -0.41697
C 6.0000000 -5.05324 -0.02634 -0.52106
H 1.0000000 3.51061 -2.99649 0.02858
H 1.0000000 1.86569 -3.08805 0.70826
H 1.0000000 2.07020 -2.74999 -1.01224
H 1.0000000 2.49523 1.32453 1.89088
H 1.0000000 0.99919 2.28752 1.90765
H 1.0000000 0.96543 0.58498 2.39574
H 1.0000000 2.00655 2.81032 -0.41421
H 1.0000000 2.40017 0.34818 -2.21936
H 1.0000000 2.98870 2.07866 -2.51029
H 1.0000000 -0.61183 2.14628 -0.08585
H 1.0000000 -0.51961 0.73582 -1.12962
H 1.0000000 -1.09515 -0.73704 0.84932
H 1.0000000 -1.27405 0.69846 1.84728
H 1.0000000 -3.18464 1.52201 0.50684
H 1.0000000 -3.93019 -2.51646 0.16845
H 1.0000000 -3.46332 -2.08925 -1.47312
H 1.0000000 -2.24716 -2.09043 -0.18757
H 1.0000000 -5.24089 -0.20235 -1.58918
H 1.0000000 -5.77884 -0.64228 0.02798
H 1.0000000 -5.26913 1.02450 -0.30590
 $END
