 $BASIS GBASIS=N21 NGAUSS=3 $END
 $CONTRL SCFTYP=UHF MAXIT=60 MULT=2 ICHARG=1 $END
 $SYSTEM MEMDDI=1000 MWORDS=30 $END
 $SCF DIRSCF=.TRUE. $END
 $STATPT OPTTOL=0.0001 NSTEP=999 $END
 $DATA

C1
C 6.0000000 1.23847 0.34827 -0.00278
C 6.0000000 -0.84077 -1.15458 0.00984
C 6.0000000 2.37564 1.36285 -0.01032
C 6.0000000 -2.00974 0.75872 -1.25381
C 6.0000000 -2.01081 0.77722 1.24371
C 6.0000000 1.25000 -0.53088 1.26564
C 6.0000000 1.24653 -0.54728 -1.25960
C 6.0000000 0.01552 -1.47640 1.25383
C 6.0000000 0.01487 -1.49607 -1.22930
C 6.0000000 -1.21402 0.35428 -0.00168
O 8.0000000 0.01949 1.12875 -0.00620
H 1.0000000 -1.76180 -1.75004 0.01487
H 1.0000000 2.18614 -1.10044 1.30927
H 1.0000000 1.23337 0.12781 2.14125
H 1.0000000 1.22400 0.10005 -2.14353
H 1.0000000 2.18409 -1.11473 -1.30046
H 1.0000000 2.31648 2.00631 0.87328
H 1.0000000 3.34628 0.85484 -0.00907
H 1.0000000 2.31369 1.99721 -0.90030
H 1.0000000 -0.56785 -1.37532 2.17383
H 1.0000000 0.32739 -2.52620 1.20267
H 1.0000000 0.33020 -2.54374 -1.15929
H 1.0000000 -0.56958 -1.41358 -2.15047
H 1.0000000 -1.44699 0.57144 -2.17135
H 1.0000000 -2.96118 0.21607 -1.31132
H 1.0000000 -2.22780 1.83067 -1.21390
H 1.0000000 -2.23858 1.84615 1.18265
H 1.0000000 -2.95715 0.22738 1.31496
H 1.0000000 -1.44368 0.61369 2.16314
 $END
