 $BASIS GBASIS=N31 NGAUSS=6 NDFUNC=1 NPFUNC=1 $END
 $CONTRL SCFTYP=RHF RUNTYP=OPTIMIZE DFTTYP=B3LYP MAXIT=60 MULT=1 ICHARG=0 $END 
 $SYSTEM MEMDDI=1000 MWORDS=30 $END
 $STATPT NSTEP=999 $END
 $SCF DIRSCF=.TRUE. $END
 $DATA

C1
O 8.0000000 -3.41890 -3.40440 1.39060
O 8.0000000 1.01500 1.55220 -2.79170
O 8.0000000 -5.22600 -2.92710 0.08360
O 8.0000000 2.16440 2.88050 -4.23780
O 8.0000000 -1.73600 -3.58150 -1.02500
O 8.0000000 2.30870 3.02370 -0.52110
O 8.0000000 -3.24470 -4.09620 -3.39760
O 8.0000000 4.74380 4.29640 -1.26860
O 8.0000000 -5.66430 -2.51320 -3.58680
O 8.0000000 4.60450 5.66160 -3.81490
O 8.0000000 -3.67930 -1.12520 2.68620
O 8.0000000 2.35580 -0.66960 -2.11410
O 8.0000000 -4.00930 1.19660 3.78300
O 8.0000000 4.82110 -1.23310 -1.40790
O 8.0000000 -7.78240 -1.49490 -0.00450
O 8.0000000 2.06630 4.04240 -6.88330
O 8.0000000 0.88830 3.87030 5.24840
O 8.0000000 4.77560 -3.30540 3.94840
O 8.0000000 -0.89640 4.17900 6.21760
O 8.0000000 6.53630 -2.94750 2.94110
C 6.0000000 0.40390 -0.75180 2.92360
C 6.0000000 1.29410 -0.03350 1.80720
C 6.0000000 -0.25560 -2.02690 2.48860
C 6.0000000 0.54570 0.58480 0.63930
C 6.0000000 -0.53350 0.19290 3.62900
C 6.0000000 2.58500 -0.72370 1.40860
C 6.0000000 -1.67340 -2.12200 2.38180
C 6.0000000 1.00950 0.44020 -0.70270
C 6.0000000 -1.94660 0.08250 3.47450
C 6.0000000 3.00980 -0.78660 0.04810
C 6.0000000 -2.46400 -1.04620 2.81910
C 6.0000000 2.14310 -0.33560 -0.95320
C 6.0000000 -3.15780 -3.71180 -0.99800
C 6.0000000 -3.78630 -2.91350 0.18440
C 6.0000000 2.79810 2.95510 -1.86160
C 6.0000000 1.64680 2.74990 -2.89920
C 6.0000000 -3.69900 -3.22610 -2.36270
C 6.0000000 3.59690 4.25470 -2.11780
C 6.0000000 -5.24820 -3.13970 -2.37360
C 6.0000000 4.02530 4.37440 -3.60210
C 6.0000000 -2.23220 -3.32550 1.85720
C 6.0000000 0.38290 1.20050 -1.73700
C 6.0000000 0.52830 -3.17600 2.21470
C 6.0000000 -0.57710 1.43660 0.82440
C 6.0000000 -5.78010 -2.36340 -1.13440
C 6.0000000 2.81720 4.13680 -4.55350
C 6.0000000 -0.00100 1.29440 4.35040
C 6.0000000 3.43950 -1.30840 2.38270
C 6.0000000 -2.75970 1.15310 3.94850
C 6.0000000 4.30500 -1.29630 -0.25810
C 6.0000000 -1.44210 -4.48180 1.70590
C 6.0000000 -0.86620 1.81500 -1.53240
C 6.0000000 -0.05400 -4.40130 1.86430
C 6.0000000 -1.34270 1.95070 -0.22910
C 6.0000000 -0.80260 2.35780 4.82420
C 6.0000000 4.63510 -1.99370 2.06740
C 6.0000000 -2.19200 2.26070 4.60440
C 6.0000000 5.08670 -1.90900 0.73630
C 6.0000000 -7.32470 -2.34280 -1.05290
C 6.0000000 3.21460 4.12920 -6.04650
C 6.0000000 -0.25740 3.47860 5.44520
C 6.0000000 5.33260 -2.74370 3.00970
H 1.0000000 1.02680 -1.07260 3.76070
H 1.0000000 1.72030 0.85220 2.28660
H 1.0000000 -3.40080 -4.76980 -0.85950
H 1.0000000 3.47420 2.09850 -1.93400
H 1.0000000 -3.47260 -1.86430 0.10910
H 1.0000000 0.90810 3.55220 -2.76770
H 1.0000000 -3.28940 -2.23170 -2.56650
H 1.0000000 2.96810 5.11280 -1.85950
H 1.0000000 -5.65600 -4.15430 -2.36140
H 1.0000000 4.79420 3.62350 -3.80590
H 1.0000000 -5.46380 -1.31740 -1.21530
H 1.0000000 2.10170 4.95690 -4.42190
H 1.0000000 1.54260 -3.16370 2.28500
H 1.0000000 -0.88270 1.75790 1.72950
H 1.0000000 1.01010 1.33590 4.50560
H 1.0000000 3.18560 -1.25780 3.36990
H 1.0000000 -1.85820 -5.37250 1.42010
H 1.0000000 -1.38380 2.24440 -2.30380
H 1.0000000 0.52990 -5.22530 1.70100
H 1.0000000 -2.20530 2.47060 -0.04720
H 1.0000000 -2.81150 3.01880 4.91090
H 1.0000000 5.99000 -2.31780 0.47240
H 1.0000000 -7.71880 -3.34710 -0.88720
H 1.0000000 -7.74890 -1.95700 -1.98320
H 1.0000000 3.87070 3.28410 -6.26520
H 1.0000000 3.74010 5.05090 -6.30720
H 1.0000000 -1.41700 -4.28360 -1.62950
H 1.0000000 3.09460 2.92220 0.05530
H 1.0000000 -2.26670 -4.10270 -3.32080
H 1.0000000 4.39690 4.21970 -0.35420
H 1.0000000 -5.26570 -3.04800 -4.30510
H 1.0000000 5.33990 5.72480 -3.16930
H 1.0000000 -4.48640 1.88990 4.04280
H 1.0000000 5.63620 -1.52970 -1.56440
H 1.0000000 -8.75870 -1.48440 -0.09710
H 1.0000000 2.41500 4.10130 -7.79750
H 1.0000000 1.41490 3.47390 4.66560
H 1.0000000 3.90000 -3.28370 4.03870
 $END
