 $BASIS GBASIS=N21 NGAUSS=3 $END
 $CONTRL SCFTYP=RHF RUNTYP=OPTIMIZE DFTTYP=B3LYP MAXIT=60 MULT=1 ICHARG=0 $END 
 $SYSTEM MEMDDI=1000 MWORDS=30 $END
 $STATPT NSTEP=999 $END
 $SCF DIRSCF=.TRUE. $END
 $DATA

C1
C 6.0000000 2.00246 0.07253 0.42018
H 1.0000000 2.06887 -0.61488 1.26985
C 6.0000000 1.22119 -0.56957 -0.74095
C 6.0000000 -0.19848 -0.92025 -0.39245
C 6.0000000 -0.69398 -2.16706 -0.10513
N 7.0000000 -2.04233 -2.08804 0.20179
C 6.0000000 -2.45028 -0.77344 0.10970
C 6.0000000 -3.70794 -0.19400 0.31096
C 6.0000000 -3.81758 1.18081 0.13464
C 6.0000000 -2.70294 1.96116 -0.23554
C 6.0000000 -1.45613 1.38097 -0.43370
C 6.0000000 -1.31013 -0.00693 -0.26121
H 1.0000000 1.22717 0.11621 -1.59915
H 1.0000000 1.74621 -1.47317 -1.07497
H 1.0000000 -0.18556 -3.12170 -0.09407
H 1.0000000 -2.63410 -2.86977 0.42913
H 1.0000000 -4.56842 -0.79482 0.59331
H 1.0000000 -4.78047 1.66155 0.28239
H 1.0000000 -2.82508 3.03244 -0.36773
H 1.0000000 -0.60521 1.99258 -0.72189
H 1.0000000 3.02054 0.33550 0.11228
H 1.0000000 1.50921 0.98397 0.77331
 $END
