 $BASIS GBASIS=N31 NGAUSS=6 NDFUNC=1 NPFUNC=1 $END
 $CONTRL SCFTYP=RHF RUNTYP=OPTIMIZE DFTTYP=B3LYP MAXIT=60 MULT=1 ICHARG=0 $END 
 $SYSTEM MEMDDI=1000 MWORDS=30 $END
 $STATPT NSTEP=999 $END
 $SCF DIRSCF=.TRUE. $END
 $DATA

C1
C 6.0000000 0.65810 -0.49030 -0.12120
C 6.0000000 -3.59870 1.30220 0.03820
C 6.0000000 -3.94520 -0.86270 -0.92420
C 6.0000000 3.30780 1.46330 -0.06420
C 6.0000000 3.75170 -0.63510 1.00040
C 6.0000000 -5.28500 -0.80160 -0.58900
C 6.0000000 5.08900 -0.52550 0.66730
C 6.0000000 -5.78590 0.31060 0.06000
C 6.0000000 5.53990 0.57770 -0.03170
C 6.0000000 -1.64290 0.11820 -0.97730
C 6.0000000 1.40500 0.23580 0.99940
H 1.0000000 -5.75280 3.15340 0.41920
H 1.0000000 5.37320 3.39560 -0.52460
C 6.0000000 -3.10290 0.18820 -0.61050
C 6.0000000 2.86200 0.35840 0.63470
C 6.0000000 -4.94320 1.36630 0.37530
C 6.0000000 4.64950 1.57580 -0.39930
O 8.0000000 2.05720 -2.39150 -0.69770
C 6.0000000 -1.16620 -2.02700 0.27340
O 8.0000000 -5.43330 2.46110 1.01400
O 8.0000000 5.09050 2.66170 -1.08730
C 6.0000000 -0.85830 -0.51780 0.17190
C 6.0000000 1.06520 -1.94890 -0.16870
O 8.0000000 0.12970 -2.66560 0.48080
H 1.0000000 -1.07770 -0.01550 1.11410
H 1.0000000 0.85120 -0.00860 -1.07980
H 1.0000000 -1.82450 -2.22300 1.11980
H 1.0000000 -1.62040 -2.38370 -0.65100
H 1.0000000 -1.52290 -0.48540 -1.87700
H 1.0000000 -1.26600 1.12420 -1.16170
H 1.0000000 0.97940 1.23010 1.13490
H 1.0000000 1.30880 -0.32990 1.92610
H 1.0000000 -2.93960 2.12080 0.28690
H 1.0000000 -3.55560 -1.73300 -1.43150
H 1.0000000 2.61180 2.23670 -0.35340
H 1.0000000 3.40120 -1.49820 1.54690
H 1.0000000 -5.94080 -1.62360 -0.83510
H 1.0000000 5.78190 -1.30270 0.95410
H 1.0000000 -6.83280 0.35820 0.32100
H 1.0000000 6.58480 0.66320 -0.29100
 $END
