 $BASIS GBASIS=N21 NGAUSS=3 $END
 $CONTRL SCFTYP=RHF DFTTYP=B3LYP MAXIT=60 MULT=1 ICHARG=0 $END
 $SYSTEM MEMDDI=1000 MWORDS=30 $END
 $SCF DIRSCF=.TRUE. $END
 $ELPOT  IEPOT=1 WHERE=PDC $END
 $PDC PTSEL=GEODESIC CONSTR=CHARGE $END
 $DATA

C1
F 9.0000000 -4.3672275160 2.6088700000 0.0000000000
H 1.0000000 -3.3981724840 2.6088700000 0.0000000000
 $END
