 $BASIS GBASIS=N21 NGAUSS=3 $END
 $CONTRL SCFTYP=RHF DFTTYP=B3LYP MAXIT=60 MULT=1 ICHARG=0 $END
 $SYSTEM MEMDDI=1000 MWORDS=30 $END
 $SCF DIRSCF=.TRUE. $END
 $ELPOT  IEPOT=1 WHERE=PDC $END
 $PDC PTSEL=CHELPG CONSTR=CHARGE $END
 $DATA

C1
C 6.0000000 -1.3758540306 -1.5136733927 1.0968838320
H 1.0000000 -1.4516282116 -0.4345674551 1.1675352091
C 6.0000000 -1.0084662532 2.1207062267 -1.3359090540
C 6.0000000 -0.3446877962 3.0138398375 -2.0672542286
O 8.0000000 -0.4067740059 1.0717878112 -0.6346211998
H 1.0000000 -2.0859361715 2.1441739156 -1.2460861245
C 6.0000000 2.7436764012 -0.1713823607 -0.8049586233
O 8.0000000 1.0421746663 2.8750806769 -2.2701169952
H 1.0000000 -0.8749019815 3.8152335736 -2.5726434026
O 8.0000000 2.1235978359 0.8556630088 -0.4486044604
H 1.0000000 3.8366979421 -0.1830045816 -0.8002662959
O 8.0000000 2.2447848771 -1.3229381621 -1.2120066989
H 1.0000000 0.6442648390 1.1398856958 -0.5738664122
H 1.0000000 1.5033825819 3.7237021242 -2.0321128457
C 6.0000000 -0.7915275882 -2.0868394783 0.0486783827
H 1.0000000 -1.7788860348 -2.1161731144 1.9002107655
O 8.0000000 -0.2636766066 -1.3831664166 -1.0489517339
H 1.0000000 -0.6713104601 -3.1578699222 -0.0621800070
H 1.0000000 1.1660660478 -1.4036454589 -1.1943239577
H 1.0000000 -0.5026359509 -0.3544224277 -0.9735660495
 $END
