 $BASIS GBASIS=N21 NGAUSS=3 $END
 $CONTRL SCFTYP=RHF RUNTYP=OPTIMIZE DFTTYP=B3LYP MAXIT=60 MULT=1 ICHARG=0 $END 
 $SYSTEM MEMDDI=1000 MWORDS=30 $END
 $STATPT NSTEP=999 $END
 $SCF DIRSCF=.TRUE. $END
 $DATA

C1
C 6.0000000 -1.74157500 -1.69589240 1.07466310
H 1.0000000 -1.94712770 -0.63748610 1.20380260
C 6.0000000 -0.94807930 2.26791640 -1.28163260
C 6.0000000 -0.43719940 3.22901700 -2.05654350
O 8.0000000 -0.21674700 1.30673030 -0.62885040
H 1.0000000 -2.01399450 2.17981560 -1.11430740
C 6.0000000 3.06873520 -0.38153480 -0.89089940
O 8.0000000 0.91860060 3.27415610 -2.30625060
H 1.0000000 -1.07715490 3.95553110 -2.54682210
O 8.0000000 2.50892270 0.68988380 -0.73353320
H 1.0000000 4.16227410 -0.47473730 -0.94820430
O 8.0000000 2.48793270 -1.56543670 -1.01455820
H 1.0000000 0.75078180 1.39745460 -0.77562630
H 1.0000000 1.18652960 4.16868410 -2.54711200
C 6.0000000 -0.90229790 -2.15330200 0.14238280
H 1.0000000 -2.23704180 -2.39698400 1.73582570
O 8.0000000 -0.21266270 -1.39499510 -0.76846850
H 1.0000000 -0.68472650 -3.20935190 0.01168970
H 1.0000000 1.49489210 -1.49646370 -0.94232420
H 1.0000000 -0.41170200 -0.43061490 -0.67739110
 $END
