 $BASIS GBASIS=N31 NGAUSS=6 NDFUNC=1 NPFUNC=1 $END
 $CONTRL SCFTYP=RHF RUNTYP=OPTIMIZE DFTTYP=B3LYP MAXIT=60 MULT=1 ICHARG=0 $END 
 $SYSTEM MEMDDI=1000 MWORDS=30 $END
 $STATPT NSTEP=999 $END
 $SCF DIRSCF=.TRUE. $END
 $DATA

C1
C 6.0000000 0.68500 0.82960 0.09840
C 6.0000000 -0.84220 0.85240 -0.13220
C 6.0000000 3.33870 -1.11100 -0.08760
C 6.0000000 -3.56570 -0.98440 0.09290
C 6.0000000 3.72840 1.00260 -1.14750
C 6.0000000 -3.88220 1.17010 1.09310
C 6.0000000 5.07910 0.89760 -0.87230
C 6.0000000 -5.23470 1.10690 0.81400
C 6.0000000 1.38880 0.11940 -1.05980
C 6.0000000 -1.57610 0.20020 1.04110
C 6.0000000 4.20890 -3.30980 1.22380
C 6.0000000 -4.51030 -3.18500 -1.16280
H 1.0000000 7.40320 -0.75930 -0.62510
H 1.0000000 -7.61680 -0.47040 0.60010
C 6.0000000 2.86010 0.00040 -0.75630
C 6.0000000 -3.04960 0.12660 0.73360
C 6.0000000 4.69130 -1.22220 0.19180
C 6.0000000 -4.92040 -1.05380 -0.19020
C 6.0000000 5.56530 -0.21360 -0.20240
C 6.0000000 -5.75850 -0.00380 0.17210
O 8.0000000 2.09760 2.73170 0.63780
C 6.0000000 -1.16110 2.36110 -0.20470
O 8.0000000 6.89380 -0.31860 0.06870
O 8.0000000 -7.08880 -0.06770 -0.10280
O 8.0000000 5.16370 -2.31460 0.84980
O 8.0000000 -5.42970 -2.14580 -0.82080
C 6.0000000 1.08690 2.28970 0.14500
O 8.0000000 0.12220 3.00850 -0.45780
H 1.0000000 0.91930 0.34050 1.04390
H 1.0000000 -1.09790 0.35650 -1.06860
H 1.0000000 0.96270 -0.87560 -1.18850
H 1.0000000 1.25210 0.69450 -1.97550
H 1.0000000 -1.18720 -0.80570 1.19900
H 1.0000000 -1.42220 0.79470 1.94170
H 1.0000000 -1.85440 2.56270 -1.02120
H 1.0000000 -1.57880 2.70550 0.74140
H 1.0000000 2.65770 -1.89040 0.22080
H 1.0000000 -2.91240 -1.79620 -0.19090
H 1.0000000 3.35070 1.86920 -1.66970
H 1.0000000 -3.47520 2.03630 1.59350
H 1.0000000 5.75530 1.68180 -1.17930
H 1.0000000 -5.88300 1.92320 1.09630
H 1.0000000 3.46420 -2.86820 1.88610
H 1.0000000 3.71750 -3.69570 0.33070
H 1.0000000 4.71650 -4.12460 1.74000
H 1.0000000 -3.74740 -2.78910 -1.83310
H 1.0000000 -4.03700 -3.56400 -0.25710
H 1.0000000 -5.04540 -3.99460 -1.65930
 $END
