 $BASIS GBASIS=N21 NGAUSS=3 $END
 $CONTRL SCFTYP=RHF RUNTYP=OPTIMIZE DFTTYP=B3LYP MAXIT=60 MULT=1 ICHARG=0 $END 
 $SYSTEM MEMDDI=1000 MWORDS=30 $END
 $STATPT NSTEP=999 $END
 $SCF DIRSCF=.TRUE. $END
 $DATA

C1
N 7.0000000 -0.36864 1.79804 0.27217
C 6.0000000 -0.09146 0.41330 0.61413
H 1.0000000 -0.06846 0.30099 1.70739
C 6.0000000 -1.10277 -0.65031 0.08025
H 1.0000000 -0.74905 -1.63050 0.41527
O 8.0000000 -1.07811 -0.72443 -1.34391
C 6.0000000 -2.52057 -0.42624 0.60950
C 6.0000000 1.30065 0.07366 0.10006
O 8.0000000 1.91398 0.71224 -0.72757
O 8.0000000 1.78532 -1.05784 0.66255
H 1.0000000 0.05918 2.07539 -0.60533
H 1.0000000 -1.34917 2.04649 0.30760
H 1.0000000 -1.28541 0.14973 -1.70564
H 1.0000000 -2.93753 0.52919 0.26723
H 1.0000000 -3.17644 -1.22085 0.24271
H 1.0000000 -2.54073 -0.43580 1.70533
H 1.0000000 2.64822 -1.23648 0.25115
 $END
