 $BASIS GBASIS=N31 NGAUSS=6 NDFUNC=1 NPFUNC=1 $END
 $CONTRL SCFTYP=RHF RUNTYP=OPTIMIZE DFTTYP=B3LYP MAXIT=60 MULT=1 ICHARG=0 $END 
 $SYSTEM MEMDDI=1000 MWORDS=30 $END
 $STATPT NSTEP=999 $END
 $SCF DIRSCF=.TRUE. $END
 $DATA

C1
C 6.0000000 1.39760 -1.69760 0.00010
C 6.0000000 2.12490 0.99270 -0.00010
C 6.0000000 2.73470 -1.33110 -0.00030
C 6.0000000 3.09530 0.00260 -0.00040
C 6.0000000 -3.50390 -0.39240 -0.00080
O 8.0000000 -1.35360 -2.24760 0.00080
O 8.0000000 0.02600 2.85400 0.00040
C 6.0000000 -1.02030 -1.07930 0.00020
C 6.0000000 -0.27500 1.67700 0.00000
C 6.0000000 -2.04430 -0.01740 -0.00010
C 6.0000000 0.41330 -0.71650 0.00030
C 6.0000000 0.78040 0.64110 0.00020
C 6.0000000 -1.69460 1.27590 -0.00020
H 1.0000000 1.12200 -2.74180 -0.00430
H 1.0000000 2.41280 2.03360 0.00020
H 1.0000000 3.49970 -2.09350 -0.00010
H 1.0000000 -2.46260 2.03520 0.00000
H 1.0000000 4.14020 0.27570 -0.00100
H 1.0000000 -3.85620 -0.48300 1.02670
H 1.0000000 -4.07700 0.37920 -0.51470
H 1.0000000 -3.63400 -1.34480 -0.51480
 $END
