 $BASIS GBASIS=N21 NGAUSS=3 $END
 $CONTRL SCFTYP=RHF DFTTYP=B3LYP MAXIT=60 MULT=1 ICHARG=1 $END
 $SYSTEM MEMDDI=1000 MWORDS=30 $END
 $SCF DIRSCF=.TRUE. $END
 $ELPOT  IEPOT=1 WHERE=PDC $END
 $PDC PTSEL=CHELPG CONSTR=CHARGE $END
 $DATA

C1
N 7.0000000 1.9767556897 1.8563498498 -0.3686874913
C 6.0000000 2.2062162421 0.5840074175 0.3360739715
H 1.0000000 2.2957401772 0.7594562095 1.4128557877
C 6.0000000 1.0156308438 -0.3898191510 0.0920655113
C 6.0000000 -0.3032806009 0.2916330525 0.5002792248
C 6.0000000 -1.5300945973 -0.4917727460 0.0066949405
N 7.0000000 -2.7732127858 0.2716773571 0.3365537870
C 6.0000000 -3.9928859385 -0.0504776948 -0.0999693646
N 7.0000000 -4.1950931693 -1.2175885450 -0.7341478412
N 7.0000000 -5.0288294430 0.7902863564 0.0846458814
C 6.0000000 3.4815428336 -0.0962974026 -0.1485155975
O 8.0000000 4.1731652138 0.2740700828 -1.0886150657
O 8.0000000 3.7238195785 -1.2308458728 0.5900202944
H 1.0000000 2.3811328986 1.7990953922 -1.3121410656
H 1.0000000 2.4065362211 2.6463588625 0.1218320416
H 1.0000000 0.9875810589 -0.6232924624 -0.9812462243
H 1.0000000 1.1956370656 -1.3150943044 0.6465981936
H 1.0000000 -0.3474245619 0.3883344900 1.5937095302
H 1.0000000 -0.2771557346 1.2918989019 0.0509697191
H 1.0000000 -1.4794534423 -0.6176795135 -1.0811898691
H 1.0000000 -1.5719202712 -1.4772868064 0.4886296373
H 1.0000000 -2.6577240844 1.0856353288 0.9351344175
H 1.0000000 -3.4797092152 -1.9355080538 -0.7506070363
H 1.0000000 -5.0638724624 -1.4125511725 -1.2197795639
H 1.0000000 -5.9863728915 0.4957969234 -0.0744768258
H 1.0000000 4.5496504362 -1.6797094619 0.2528557109
H 1.0000000 -4.8847391609 1.7455529624 0.3942973968
 $END
