 $BASIS GBASIS=N31 NGAUSS=6 NDFUNC=1 NPFUNC=1 $END
 $CONTRL SCFTYP=RHF RUNTYP=OPTIMIZE DFTTYP=B3LYP MAXIT=60 MULT=1 ICHARG=0 $END 
 $SYSTEM MEMDDI=1000 MWORDS=30 $END
 $STATPT NSTEP=999 $END
 $SCF DIRSCF=.TRUE. $END
 $DATA

C1
C 6.0000000 -1.40860 0.00000 0.00190
C 6.0000000 -0.67010 -1.27920 0.00100
C 6.0000000 0.67010 -1.27920 0.00010
C 6.0000000 1.40860 0.00000 -0.00050
C 6.0000000 0.67010 1.27920 -0.00060
C 6.0000000 -0.67010 1.27920 0.00180
O 8.0000000 2.62300 0.00000 -0.00060
O 8.0000000 -2.62300 0.00000 -0.00230
H 1.0000000 -1.21010 -2.21450 0.00150
H 1.0000000 1.21010 -2.21450 0.00010
H 1.0000000 1.21010 2.21450 -0.00040
H 1.0000000 -1.21010 2.21450 0.00140
 $END
