 $BASIS GBASIS=N21 NGAUSS=3 $END
 $CONTRL SCFTYP=UHF MAXIT=60 MULT=2 ICHARG=0 $END
 $SYSTEM MEMDDI=1000 MWORDS=30 $END
 $SCF DIRSCF=.TRUE. $END
 $STATPT OPTTOL=0.0001 NSTEP=999 $END
 $DATA

C1
C 6.0000000 2.2343888172 0.5225300418 0.4812673728
H 1.0000000 -4.9383131871 0.6684573026 1.6505337536
H 1.0000000 -2.7305933126 1.0830822712 0.8358536821
H 1.0000000 3.1668025760 0.1311235830 0.0629654246
H 1.0000000 2.2152644344 1.6058479018 0.3168347902
H 1.0000000 -5.9990882628 -0.2042933219 0.5962822612
H 1.0000000 -3.4244059048 -1.5365298887 -1.4590507951
H 1.0000000 -1.4874992692 -1.3802685480 -0.1215527305
H 1.0000000 -1.4987714813 -0.0919817883 -1.3658524211
H 1.0000000 -0.3683892125 1.4607320196 0.2370349894
H 1.0000000 -0.3515367359 0.1765066120 1.4704251406
H 1.0000000 -4.9834223368 -1.9036075913 -0.7971782504
H 1.0000000 1.0431042619 0.0293335440 -1.2682858640
N 7.0000000 -5.0528601892 0.0678596209 0.8409570816
N 7.0000000 -4.1452740962 -1.3323159773 -0.7761953240
C 6.0000000 -3.9932602292 -0.3419233595 0.1183540864
C 6.0000000 -1.5225549010 -0.2975193949 -0.2879498322
C 6.0000000 -0.3151757906 0.3746334330 0.3921248069
C 6.0000000 1.0181920903 -0.1547467320 -0.1863788350
H 1.0000000 2.2401444514 0.3354438277 1.5610372246
H 1.0000000 1.0726281150 -1.2404719015 -0.0336235259
N 7.0000000 -2.7958798369 0.2249583458 0.2935969641
 $END
