 $BASIS GBASIS=N21 NGAUSS=3 $END
 $CONTRL SCFTYP=UHF MAXIT=60 MULT=2 ICHARG=-1 $END
 $SYSTEM MEMDDI=1000 MWORDS=30 $END
 $SCF DIRSCF=.TRUE. $END
 $STATPT OPTTOL=0.0001 NSTEP=999 $END
 $DATA

C1
C 6.0000000 1.5259987742 1.3943208790 0.1765470823
C 6.0000000 0.6458481868 -2.1557077161 0.3006852458
C 6.0000000 3.7468145232 -0.3345353484 -0.2748708003
C 6.0000000 2.7981678154 1.9028967902 -0.0588460122
C 6.0000000 3.8989569646 1.0477805020 -0.2800771578
C 6.0000000 -1.2235139427 -0.4858796780 0.7539770490
H 1.0000000 2.5847057990 -2.9866484420 -0.0957999518
H 1.0000000 -1.6312386047 2.2014714601 -1.2252915559
H 1.0000000 -2.2835990184 2.2490945482 0.3100532371
C 6.0000000 0.1948856465 -0.8602835021 0.4152373645
O 8.0000000 -4.2669136497 1.0260385181 0.0948813773
O 8.0000000 -3.8192414206 -1.1710939945 -0.3811216571
C 6.0000000 -3.4599818703 0.1493630321 -0.1982092795
H 1.0000000 -4.8031938960 -1.2567373566 -0.2333329931
C 6.0000000 -1.9550923411 0.3322280304 -0.3615989295
N 7.0000000 -1.6100007303 1.7666071324 -0.2980450335
C 6.0000000 1.3457124173 0.0005344720 0.1981055342
C 6.0000000 2.4690477405 -0.8514612010 -0.0352389699
N 7.0000000 2.0159914851 -2.1601287259 0.0283905735
H 1.0000000 0.6570053515 2.0293096351 0.2958741436
H 1.0000000 -1.7968069411 -1.4038123151 0.9202656172
H 1.0000000 -1.2595489525 0.1192571405 1.6687283365
H 1.0000000 0.0971603548 -3.0781049643 0.4040978219
H 1.0000000 4.5937591907 -0.9883902890 -0.4512814171
H 1.0000000 2.9512041633 2.9763683939 -0.0814871058
H 1.0000000 -1.6613835287 -0.0856041401 -1.3280301044
H 1.0000000 4.8790164833 1.4744871389 -0.4629024150
 $END
