 $BASIS GBASIS=N21 NGAUSS=3 $END
 $CONTRL SCFTYP=RHF DFTTYP=B3LYP MAXIT=60 MULT=1 ICHARG=0 $END
 $SYSTEM MEMDDI=1000 MWORDS=30 $END
 $SCF DIRSCF=.TRUE. $END
 $ELPOT  IEPOT=1 WHERE=PDC $END
 $PDC PTSEL=GEODESIC CONSTR=CHARGE $END
 $DATA

C1
H 1.0000000 -0.9685972096 2.4101391731 -0.3637487910
C 6.0000000 -0.6738754228 1.4681523580 0.1172500964
C 6.0000000 -1.6027845363 0.3037484194 -0.2876341403
H 1.0000000 -1.7562062453 0.2598666105 -1.3697425477
O 8.0000000 -2.8763632246 0.4166648143 0.4593644677
C 6.0000000 -1.0074940130 -1.0005572285 0.2107175699
H 1.0000000 -0.9661005517 -0.9567312200 1.3057246201
O 8.0000000 -1.7588262066 -2.1613668967 -0.2511227804
C 6.0000000 0.4096478233 -1.1793463975 -0.3097617118
H 1.0000000 0.3812432833 -1.1706902365 -1.4103887015
O 8.0000000 0.9651891451 -2.4132875447 0.2149706197
C 6.0000000 1.2620274311 -0.0091682090 0.1809640187
H 1.0000000 1.2738457427 0.0183621917 1.2721509228
O 8.0000000 0.6599171174 1.2296303511 -0.3563554543
C 6.0000000 2.6823592793 -0.0964949184 -0.3440070686
O 8.0000000 3.4809477704 0.8422554576 0.4341572427
O 8.0000000 -0.7167401721 1.5549869840 1.5555065942
H 1.0000000 -3.4486867144 1.0973753619 0.0118988363
H 1.0000000 -2.6842205388 -2.0469587955 0.0975098415
H 1.0000000 0.2365128510 -3.0859853008 0.0949172015
H 1.0000000 3.0068982875 -1.1388542770 -0.2158359906
H 1.0000000 2.6618712259 0.1469911178 -1.4167787481
H 1.0000000 4.4077972683 0.8166792832 0.0736717029
H 1.0000000 -1.6450223901 1.2503890021 1.7849421999
 $END
