 $BASIS GBASIS=N21 NGAUSS=3 $END
 $CONTRL SCFTYP=RHF MAXIT=60 MULT=1 ICHARG=0 $END
 $SYSTEM MEMDDI=1000 MWORDS=30 $END
 $SCF DIRSCF=.TRUE. $END
 $DATA

C1
C 6.0000000 -0.1941751967 0.2690941515 -0.3636675694
H 1.0000000 -0.1349043522 -0.0530378188 -1.4080409073
C 6.0000000 0.7392836511 -0.5700234682 0.5161276937
S 16.0000000 2.5376387605 -0.3090881039 -0.1080520904
H 1.0000000 0.7003948445 -0.2496769564 1.5584726406
H 1.0000000 0.5110015453 -1.6342641145 0.4396897306
H 1.0000000 3.1466729767 -1.1244819677 0.8188812646
H 1.0000000 -1.2294302487 0.1525696752 -0.0219400040
H 1.0000000 0.0722580195 1.3292886027 -0.3087207585
 $END
