 $BASIS GBASIS=N21 NGAUSS=3 $END
 $CONTRL SCFTYP=RHF RUNTYP=OPTIMIZE DFTTYP=B3LYP MAXIT=60 MULT=1 ICHARG=0 $END 
 $SYSTEM MEMDDI=1000 MWORDS=30 $END
 $STATPT NSTEP=999 $END
 $SCF DIRSCF=.TRUE. $END
 $DATA

C1
C 6.0000000 -0.17995 0.26489 -0.36111
H 1.0000000 -0.13853 -0.04775 -1.40911
C 6.0000000 0.77079 -0.56151 0.50208
S 16.0000000 2.50678 -0.31792 -0.08900
H 1.0000000 0.70787 -0.25047 1.54837
H 1.0000000 0.52127 -1.62411 0.43973
H 1.0000000 3.10460 -1.12109 0.81515
H 1.0000000 -1.20945 0.13796 -0.01009
H 1.0000000 0.06536 1.33038 -0.31327
 $END
