 $BASIS GBASIS=N21 NGAUSS=3 $END
 $CONTRL SCFTYP=RHF DFTTYP=B3LYP MAXIT=60 MULT=1 ICHARG=0 $END
 $SYSTEM MEMDDI=1000 MWORDS=30 $END
 $SCF DIRSCF=.TRUE. $END
 $ELPOT  IEPOT=1 WHERE=PDC $END
 $PDC PTSEL=CHELPG CONSTR=CHARGE $END
 $DATA

C1
C 6.0000000 1.43293 0.23902 0.68409
C 6.0000000 -2.00419 1.11615 -0.58777
C 6.0000000 3.46490 -0.48538 -2.65575
C 6.0000000 1.28719 -1.56957 -2.07502
C 6.0000000 -5.08515 1.18650 0.33186
C 6.0000000 -4.63191 0.26801 -1.99625
H 1.0000000 0.26350 -1.92278 2.12304
H 1.0000000 -2.56633 -2.54199 1.59852
C 6.0000000 -0.93480 -0.96870 0.92167
C 6.0000000 -2.30864 -0.94226 0.59371
C 6.0000000 -2.86556 0.08596 -0.17507
O 8.0000000 2.04114 1.86848 2.42005
C 6.0000000 2.21375 -0.78532 1.52518
C 6.0000000 3.28306 -1.80246 -0.53100
C 6.0000000 2.53164 -2.08988 0.77521
O 8.0000000 -0.58517 -2.06551 1.68713
O 8.0000000 -3.11203 -1.94785 1.05977
C 6.0000000 -4.35604 0.10242 -0.48920
C 6.0000000 1.44787 1.55650 -1.51461
C 6.0000000 2.52189 -0.85139 -1.48934
C 6.0000000 2.18255 0.45578 -0.70350
C 6.0000000 0.34303 2.15152 -0.63044
C 6.0000000 1.51986 1.63150 1.35351
C 6.0000000 -0.07574 0.03094 0.46153
C 6.0000000 -0.65378 1.08802 -0.26880
O 8.0000000 0.97807 2.62428 0.60622
H 1.0000000 3.15917 0.86431 -0.40956
H 1.0000000 -0.11846 3.03815 -1.06655
H 1.0000000 -2.40212 1.95522 -1.15249
H 1.0000000 2.14188 2.34639 -1.81942
H 1.0000000 0.98432 1.15936 -2.42211
H 1.0000000 -4.75959 -0.86764 -0.18409
H 1.0000000 3.15748 -0.30782 1.81207
H 1.0000000 1.71806 -0.95786 2.49148
H 1.0000000 4.25710 -1.35315 -0.28795
H 1.0000000 3.49605 -2.74269 -1.05570
H 1.0000000 3.14673 -2.73031 1.41938
H 1.0000000 1.62046 -2.65795 0.55627
H 1.0000000 4.35969 0.03898 -2.29881
H 1.0000000 3.79436 -1.39198 -3.17676
H 1.0000000 2.97089 0.15498 -3.39448
H 1.0000000 0.74110 -0.93346 -2.77912
H 1.0000000 1.60885 -2.45986 -2.62891
H 1.0000000 0.57700 -1.89236 -1.31126
H 1.0000000 -4.73926 2.19074 0.05880
H 1.0000000 -6.16570 1.14242 0.15203
H 1.0000000 -4.91328 1.05199 1.40484
H 1.0000000 -4.13367 -0.51358 -2.57970
H 1.0000000 -5.70817 0.20631 -2.19376
H 1.0000000 -4.28464 1.23886 -2.36847
 $END
