 $BASIS GBASIS=N21 NGAUSS=3 $END
 $CONTRL SCFTYP=UHF MAXIT=60 MULT=2 ICHARG=1 $END
 $SYSTEM MEMDDI=1000 MWORDS=30 $END
 $SCF DIRSCF=.TRUE. $END
 $STATPT OPTTOL=0.0001 NSTEP=999 $END
 $DATA

C1
C 6.0000000 -0.1217005036 -0.3908808330 0.0003412607
O 8.0000000 -1.1706113982 0.2193281557 0.0017086453
O 8.0000000 1.1007719356 0.2496250719 0.0017430219
H 1.0000000 -0.0341013600 -1.4903190750 -0.0020078616
H 1.0000000 1.8469413261 -0.4082633196 0.0002249337
 $END
