 $BASIS GBASIS=N21 NGAUSS=3 $END
 $CONTRL SCFTYP=RHF RUNTYP=OPTIMIZE DFTTYP=B3LYP MAXIT=60 MULT=1 ICHARG=0 $END 
 $SYSTEM MEMDDI=1000 MWORDS=30 $END
 $STATPT NSTEP=999 $END
 $SCF DIRSCF=.TRUE. $END
 $DATA

C1
C 6.0000000 -0.10502 -0.38185 0.00043
O 8.0000000 -1.14621 0.21181 0.00203
O 8.0000000 1.09264 0.24711 0.00180
H 1.0000000 -0.02408 -1.48683 -0.00228
H 1.0000000 1.80397 -0.41075 0.00003
 $END
