 $BASIS GBASIS=N21 NGAUSS=3 $END
 $CONTRL SCFTYP=UHF MAXIT=60 MULT=2 ICHARG=1 $END
 $SYSTEM MEMDDI=1000 MWORDS=30 $END
 $SCF DIRSCF=.TRUE. $END
 $STATPT OPTTOL=0.0001 NSTEP=999 $END
 $DATA

C1
N 7.0000000 2.1744652066 1.6830587885 -0.8898611801
C 6.0000000 2.2156641541 0.6445336898 0.1349014022
H 1.0000000 2.3084494269 1.0887362265 1.1335041524
C 6.0000000 1.0029209570 -0.3451637039 0.1691360605
C 6.0000000 -0.3313511583 0.3744881295 0.4326287698
C 6.0000000 -1.5110874165 -0.6162016034 0.5321610106
N 7.0000000 -2.7887181131 0.0811614448 0.7767541318
C 6.0000000 -3.9487491760 -0.1627556985 0.0349678788
N 7.0000000 -3.6991535782 -0.3593235742 -1.3276855630
N 7.0000000 -5.0834573378 -0.1809661875 0.6461892802
C 6.0000000 3.4597865319 -0.1830744014 -0.1219031301
O 8.0000000 4.1212950061 -0.2115874167 -1.1530881315
O 8.0000000 3.7261467748 -0.9896772073 0.9669364097
H 1.0000000 2.4974619543 1.3425409657 -1.7960093212
H 1.0000000 1.3062201668 2.2118147864 -0.9295868951
H 1.0000000 0.9584775264 -0.8693079724 -0.7956910316
H 1.0000000 1.1970039605 -1.0857569433 0.9532965620
H 1.0000000 -0.2663363749 0.9454102102 1.3692423214
H 1.0000000 -0.5426218484 1.0881377449 -0.3735929764
H 1.0000000 -1.6142570545 -1.1774302785 -0.4006536607
H 1.0000000 -1.3072787093 -1.3402351338 1.3353899092
H 1.0000000 -3.0095537724 0.2996565137 1.7457453455
H 1.0000000 -2.9365785299 0.1495871061 -1.7626591916
H 1.0000000 -4.4786632361 -0.6085091806 -1.9246353024
H 1.0000000 -5.8896214372 -0.2080483851 0.0019349713
H 1.0000000 4.5172060770 -1.5585279192 0.7517781779
 $END
