 $BASIS GBASIS=N21 NGAUSS=3 $END
 $CONTRL SCFTYP=RHF RUNTYP=OPTIMIZE DFTTYP=B3LYP MAXIT=60 MULT=1 ICHARG=0 $END 
 $SYSTEM MEMDDI=1000 MWORDS=30 $END
 $STATPT NSTEP=999 $END
 $SCF DIRSCF=.TRUE. $END
 $DATA

C1
N 7.0000000 2.47095 1.78834 -0.54477
C 6.0000000 2.29082 0.59276 0.27036
H 1.0000000 2.26666 0.88868 1.32632
C 6.0000000 1.02429 -0.26378 -0.01919
C 6.0000000 -0.28583 0.46826 0.29472
C 6.0000000 -1.51684 -0.40967 0.05073
N 7.0000000 -2.74420 0.35091 0.31319
C 6.0000000 -4.00529 -0.19603 0.07886
N 7.0000000 -4.11299 -0.88483 -1.13245
N 7.0000000 -4.92751 -0.04023 0.96266
C 6.0000000 3.51093 -0.29306 0.06756
O 8.0000000 4.14504 -0.37628 -0.96321
O 8.0000000 3.79191 -1.04008 1.16214
H 1.0000000 2.74828 1.53968 -1.49118
H 1.0000000 1.62870 2.35257 -0.57967
H 1.0000000 1.04406 -0.56521 -1.07561
H 1.0000000 1.07939 -1.18158 0.58115
H 1.0000000 -0.27645 0.79585 1.34475
H 1.0000000 -0.38485 1.37332 -0.31794
H 1.0000000 -1.52059 -0.74807 -0.98992
H 1.0000000 -1.46279 -1.31395 0.67872
H 1.0000000 -2.75502 0.78592 1.23053
H 1.0000000 -3.58659 -0.50055 -1.90754
H 1.0000000 -5.05609 -1.14092 -1.39019
H 1.0000000 -5.83503 -0.35857 0.62308
H 1.0000000 4.54671 -1.61092 0.93610
 $END
