 $BASIS GBASIS=N31 NGAUSS=6 NDFUNC=1 NPFUNC=1 $END
 $CONTRL SCFTYP=RHF RUNTYP=OPTIMIZE DFTTYP=B3LYP MAXIT=60 MULT=1 ICHARG=0 $END 
 $SYSTEM MEMDDI=1000 MWORDS=30 $END
 $STATPT NSTEP=999 $END
 $SCF DIRSCF=.TRUE. $END
 $DATA

C1
O 8.0000000 0.76790 2.48460 -0.00060
C 6.0000000 0.61300 1.13890 -0.00030
C 6.0000000 1.69820 0.30460 -0.00030
C 6.0000000 1.50460 -1.08990 0.00010
O 8.0000000 0.27700 -1.63300 0.00000
C 6.0000000 -0.83690 -0.86920 -0.00010
C 6.0000000 -2.09650 -1.45350 -0.00070
C 6.0000000 -3.22450 -0.65930 -0.00110
C 6.0000000 -3.11580 0.72320 -0.00090
C 6.0000000 -1.87580 1.32320 -0.00030
C 6.0000000 -0.72570 0.53090 0.00630
O 8.0000000 2.47780 -1.82360 0.00010
O 8.0000000 2.95830 0.82060 -0.00110
H 1.0000000 1.69050 2.77430 -0.00090
H 1.0000000 -2.19320 -2.52910 -0.00120
H 1.0000000 -4.20180 -1.11880 -0.00190
H 1.0000000 -4.00750 1.33240 -0.00160
H 1.0000000 -1.79350 2.40010 -0.00060
H 1.0000000 3.65710 0.15220 -0.00100
 $END
