 $BASIS GBASIS=N21 NGAUSS=3 $END
 $CONTRL SCFTYP=UHF MAXIT=60 MULT=2 ICHARG=-1 $END
 $SYSTEM MEMDDI=1000 MWORDS=30 $END
 $SCF DIRSCF=.TRUE. $END
 $STATPT OPTTOL=0.0001 NSTEP=999 $END
 $DATA

C1
C 6.0000000 -2.1299744135 -2.3927918316 -0.4882839672
C 6.0000000 1.9211063153 2.1500050434 -1.1835092090
H 1.0000000 -3.0821866169 1.7772788794 2.0638641858
H 1.0000000 3.5788437524 -1.3152395192 2.5389368936
H 1.0000000 4.2882320962 -2.0961759109 0.2125074858
H 1.0000000 -3.5056871219 2.6741603241 0.2143049435
H 1.0000000 4.4986210628 -0.5550208927 -1.1585812916
H 1.0000000 -4.1436732612 0.9369415909 -1.6877966333
H 1.0000000 -3.0999745836 -3.4553522991 -1.8780045866
H 1.0000000 1.2656668344 2.8463389322 0.5226471270
O 8.0000000 -2.7050640215 0.8578110056 2.2611775101
O 8.0000000 3.5870332555 -1.1627552056 1.5577973084
O 8.0000000 3.8646192341 -2.2830647596 -0.6857797571
O 8.0000000 -2.6848300915 2.8859485505 0.7589782969
O 8.0000000 3.9229178645 0.2675754941 -1.1493824470
O 8.0000000 -3.7182462846 1.3209606906 -0.8768604098
O 8.0000000 -3.2402732973 -2.5868214907 -1.4149665778
O 8.0000000 1.1044705660 3.1080896533 -0.4271001687
O 8.0000000 0.0375750921 -1.0537313160 0.6849055699
C 6.0000000 -1.2918161700 -0.6003507748 1.1195522550
C 6.0000000 1.2094776406 -0.4786997271 1.2872226664
C 6.0000000 -1.4843930221 0.8922949669 1.4751832138
C 6.0000000 2.2844777984 -1.5254987484 0.9938369472
C 6.0000000 -2.2259198205 -0.9543084402 -0.0229091829
C 6.0000000 2.5457593727 -1.6553593104 -0.5228847401
C 6.0000000 -1.7071785167 1.8867009741 0.2787050238
C 6.0000000 2.5956948506 -0.2912982210 -1.2794397173
C 6.0000000 1.5643398616 0.7175419689 -0.7779451334
C 6.0000000 -2.2693191864 1.2328554331 -1.0079333146
O 8.0000000 1.5462380388 0.7915854018 0.7128743261
O 8.0000000 -1.8359461225 -0.1197543461 -1.1893747240
H 1.0000000 -1.5767474133 -1.1491024371 2.0251877703
H 1.0000000 1.0923538833 -0.2991122558 2.3624176974
H 1.0000000 -0.6318942888 1.2644153987 2.0586187407
H 1.0000000 1.9366416003 -2.4900881533 1.3823000929
H 1.0000000 -3.2440979741 -0.6987458276 0.2757838161
H 1.0000000 1.7712729735 -2.2883808271 -0.9560411428
H 1.0000000 -0.7717212391 2.3864506253 0.0243850262
H 1.0000000 2.3530166238 -0.4970112220 -2.3360045372
H 1.0000000 0.5665709145 0.4162242154 -1.1023305661
H 1.0000000 -1.9221440841 1.7641998574 -1.8993846317
H 1.0000000 -2.1964933111 -3.0561717798 0.3880967942
H 1.0000000 -1.1475589235 -2.5233543249 -0.9552302149
H 1.0000000 1.7079949154 2.3158970303 -2.2415193348
H 1.0000000 2.9875154173 2.2928134848 -0.9935213029
 $END
