 $BASIS GBASIS=N21 NGAUSS=3 $END
 $CONTRL SCFTYP=RHF RUNTYP=OPTIMIZE DFTTYP=B3LYP MAXIT=60 MULT=1 ICHARG=0 $END 
 $SYSTEM MEMDDI=1000 MWORDS=30 $END
 $STATPT NSTEP=999 $END
 $SCF DIRSCF=.TRUE. $END
 $DATA

C1
C 6.0000000 -2.30953090 -2.59145120 0.46129270
C 6.0000000 2.67795030 2.49767120 0.27851270
H 1.0000000 -2.71016920 2.51739640 1.43235450
H 1.0000000 2.75808360 -2.84233160 1.65209180
H 1.0000000 4.06674660 -2.48020730 -0.79297770
H 1.0000000 -3.50942960 2.77957600 -0.83741860
H 1.0000000 5.02495600 -0.30855230 -0.54672620
H 1.0000000 -5.00731030 0.31944560 -1.25079930
H 1.0000000 -3.51341060 -4.13098690 0.22117130
H 1.0000000 1.85148800 4.08892430 1.09620260
O 8.0000000 -2.48408420 1.59022340 1.59342270
O 8.0000000 3.09922500 -2.20716490 1.00985570
O 8.0000000 3.74994630 -1.97721630 -1.56150060
O 8.0000000 -2.54337990 2.85160440 -0.89908410
O 8.0000000 4.42612390 0.33066370 -0.13433770
O 8.0000000 -4.33160080 0.87710250 -0.84104350
O 8.0000000 -3.60588180 -3.18826000 0.40437770
O 8.0000000 1.55115470 3.31566900 0.60348960
O 8.0000000 -0.09563110 -0.73854240 0.12653380
C 6.0000000 -1.27066350 -0.28277210 0.81784240
C 6.0000000 1.10443460 -0.77615250 0.87731520
C 6.0000000 -1.52523390 1.22117550 0.60432010
C 6.0000000 2.03775620 -1.77139640 0.15361130
C 6.0000000 -2.47373010 -1.08737730 0.32412340
C 6.0000000 2.69270680 -1.14597760 -1.08859120
C 6.0000000 -2.02927480 1.52356230 -0.82728080
C 6.0000000 3.20953630 0.29314120 -0.86380690
C 6.0000000 2.15768170 1.13033960 -0.13084520
C 6.0000000 -3.06133760 0.51226640 -1.36658870
O 8.0000000 1.69109270 0.48312800 1.06517430
O 8.0000000 -2.71439910 -0.81593950 -1.07081080
H 1.0000000 -1.14865600 -0.44542150 1.89796790
H 1.0000000 0.89909940 -1.13574090 1.89589850
H 1.0000000 -0.59404720 1.77625980 0.76533450
H 1.0000000 1.43737630 -2.63441320 -0.16141880
H 1.0000000 -3.34649670 -0.77661300 0.91144230
H 1.0000000 1.93045790 -1.10370710 -1.87511820
H 1.0000000 -1.16307730 1.47389610 -1.49634660
H 1.0000000 3.36091470 0.74596650 -1.85791360
H 1.0000000 1.31019890 1.27722520 -0.81516030
H 1.0000000 -3.08724310 0.55349870 -2.46240190
H 1.0000000 -1.82870310 -2.81094300 1.42735350
H 1.0000000 -1.66449980 -2.95826550 -0.34586610
H 1.0000000 3.24136450 2.93035700 -0.56040250
H 1.0000000 3.35479640 2.37823960 1.13125090
 $END
