 $BASIS GBASIS=N21 NGAUSS=3 $END
 $CONTRL SCFTYP=RHF DFTTYP=B3LYP MAXIT=60 MULT=1 ICHARG=0 $END
 $SYSTEM MEMDDI=1000 MWORDS=30 $END
 $SCF DIRSCF=.TRUE. $END
 $ELPOT  IEPOT=1 WHERE=PDC $END
 $PDC PTSEL=CHELPG CONSTR=CHARGE $END
 $DATA

C1
P 15.0000000 -3.8843191121 -0.2071821315 -0.3395519812
O 8.0000000 -4.6567007344 -0.6206711105 -1.6160212724
O 8.0000000 -3.7416216026 1.4175199955 0.0122508866
O 8.0000000 -4.5769279714 -0.6717879640 1.1119530030
O 8.0000000 -2.3073711758 -0.7287487979 -0.2124046376
C 6.0000000 -1.1971159443 0.1725926591 -0.6496612381
C 6.0000000 0.0201214321 -0.3942639998 0.0566527134
H 1.0000000 -0.0835449313 -0.2443488511 1.1393399271
C 6.0000000 1.2937448572 0.2962091118 -0.4207064092
H 1.0000000 1.4328463464 0.0699850931 -1.4823848266
C 6.0000000 2.4923024969 -0.1777010449 0.4077278172
H 1.0000000 2.5012343029 -1.2692020345 0.4912407929
C 6.0000000 3.8210158870 0.4001208261 -0.1698651989
H 1.0000000 3.5738580436 1.3619774649 -0.6338482954
C 6.0000000 4.4565554885 -0.5649066342 -1.1375901666
O 8.0000000 5.5343712601 -1.1074430231 -0.8629527284
O 8.0000000 4.7339461737 0.6030079654 0.9485278095
O 8.0000000 2.3190347740 0.4738413019 1.7074963820
O 8.0000000 1.1917777180 1.7383080221 -0.2552904391
O 8.0000000 0.1909838662 -1.7987965636 -0.2879637021
H 1.0000000 -4.3498194275 1.6759883086 0.7568638075
H 1.0000000 -5.0618783282 -1.5378444056 1.0887237949
H 1.0000000 -1.0848949673 0.0857131341 -1.7346272734
H 1.0000000 -1.3920960447 1.2019609671 -0.3559077561
H 1.0000000 3.9013033494 -0.7736778495 -2.0624903417
H 1.0000000 5.4591336247 -0.0809821070 0.8046252732
H 1.0000000 3.2729907931 0.6225289943 2.0076726247
H 1.0000000 1.4591475113 1.8365650677 0.7136225472
H 1.0000000 -0.7153776856 -2.2019625945 -0.1854311119
 $END
