 $BASIS GBASIS=N21 NGAUSS=3 $END
 $CONTRL SCFTYP=RHF RUNTYP=OPTIMIZE DFTTYP=B3LYP MAXIT=60 MULT=1 ICHARG=0 $END 
 $SYSTEM MEMDDI=1000 MWORDS=30 $END
 $STATPT NSTEP=999 $END
 $SCF DIRSCF=.TRUE. $END
 $DATA

C1
P 15.0000000 -3.89793270 -0.06739830 -0.30609800
O 8.0000000 -4.12505840 0.00718300 -1.76329700
O 8.0000000 -4.34193050 1.29401750 0.44622450
O 8.0000000 -4.65121590 -1.25528100 0.49319610
O 8.0000000 -2.40145850 -0.36297460 0.21056660
C 6.0000000 -1.27906400 0.38376640 -0.34391710
C 6.0000000 -0.02564020 -0.29199720 0.19815450
H 1.0000000 -0.02427920 -0.21279510 1.29606080
C 6.0000000 1.24750440 0.37367230 -0.35227080
H 1.0000000 1.24481040 0.25770960 -1.44383410
C 6.0000000 2.51624580 -0.29215270 0.21444820
H 1.0000000 2.40137590 -1.37471740 0.08267180
C 6.0000000 3.81922710 0.19105380 -0.51038310
H 1.0000000 3.54737950 0.55794240 -1.51316940
C 6.0000000 4.79556000 -0.95637670 -0.70380820
O 8.0000000 5.94254890 -0.88735120 -0.30894710
O 8.0000000 4.43802820 1.22203300 0.23203040
O 8.0000000 2.61519020 -0.02181370 1.60589170
O 8.0000000 1.24108180 1.77149290 -0.09651250
O 8.0000000 0.01755800 -1.66118730 -0.19761510
H 1.0000000 -4.29789870 1.23229830 1.41240010
H 1.0000000 -5.37062430 -1.62466190 -0.04009380
H 1.0000000 -1.31841300 0.32178550 -1.43619400
H 1.0000000 -1.33477440 1.42739150 -0.02510850
H 1.0000000 4.41533820 -1.85306590 -1.22990560
H 1.0000000 5.37695740 0.97260380 0.32843490
H 1.0000000 3.36084010 0.59727630 1.71253150
H 1.0000000 1.51532990 1.89718530 0.82544560
H 1.0000000 -0.82398600 -2.06883880 0.05309760
 $END
