 $BASIS GBASIS=N31 NGAUSS=6 NDFUNC=1 NPFUNC=1 $END
 $CONTRL SCFTYP=RHF RUNTYP=OPTIMIZE DFTTYP=B3LYP MAXIT=60 MULT=1 ICHARG=0 $END 
 $SYSTEM MEMDDI=1000 MWORDS=30 $END
 $STATPT NSTEP=999 $END
 $SCF DIRSCF=.TRUE. $END
 $DATA

C1
C 6.0000000 -1.93980 -1.61330 0.71520
C 6.0000000 -0.65190 -1.27340 -0.05310
C 6.0000000 1.25460 0.17880 -0.01360
C 6.0000000 1.78670 1.46210 0.62960
C 6.0000000 3.47420 -0.67230 -0.33140
C 6.0000000 3.17230 1.77480 0.05620
C 6.0000000 4.09550 0.57690 0.29900
C 6.0000000 4.36100 -1.88490 -0.04150
H 1.0000000 -0.00200 2.41050 0.67550
H 1.0000000 3.16950 3.72630 0.59740
H 1.0000000 5.82210 1.60710 0.05700
H 1.0000000 4.35700 -3.83530 -0.58650
O 8.0000000 -4.24140 1.74120 -1.96570
C 6.0000000 -4.66320 1.08510 1.32470
O 8.0000000 0.89690 2.54340 0.34480
O 8.0000000 3.70810 2.93030 0.70410
O 8.0000000 5.37030 0.82820 -0.29560
O 8.0000000 3.84330 -3.02790 -0.72530
O 8.0000000 -0.01340 -0.15010 0.55730
C 6.0000000 -3.81180 1.40270 -0.87960
C 6.0000000 -2.56980 -2.85390 0.13660
O 8.0000000 -0.99150 -0.95130 -1.42840
O 8.0000000 -4.20580 1.99190 0.28730
O 8.0000000 2.17510 -0.88830 0.22340
C 6.0000000 -3.72270 -0.07490 1.50060
C 6.0000000 -1.89800 0.02150 -1.64660
C 6.0000000 -2.87760 -0.44050 0.55980
C 6.0000000 -2.82310 0.32210 -0.71420
C 6.0000000 -2.78330 -3.89710 0.89970
H 1.0000000 -1.71230 -1.76910 1.76980
H 1.0000000 -3.74100 -0.62600 2.42920
H 1.0000000 0.02130 -2.13050 -0.03360
H 1.0000000 -2.84540 -2.88300 -0.90730
H 1.0000000 -1.88260 0.56640 -2.57900
H 1.0000000 -4.73670 1.62940 2.26620
H 1.0000000 -5.64930 0.70610 1.05640
H 1.0000000 -3.23490 -4.78620 0.48500
H 1.0000000 -2.50780 -3.86790 1.94360
H 1.0000000 1.14180 0.32980 -1.08720
H 1.0000000 1.86140 1.32500 1.70840
H 1.0000000 3.39060 -0.53220 -1.40910
H 1.0000000 3.09000 1.96230 -1.01440
H 1.0000000 4.21780 0.42150 1.37100
H 1.0000000 5.37540 -1.68390 -0.38600
H 1.0000000 4.37320 -2.07800 1.03120
 $END
