 $BASIS GBASIS=N21 NGAUSS=3 $END
 $CONTRL SCFTYP=RHF RUNTYP=OPTIMIZE DFTTYP=B3LYP MAXIT=60 MULT=1 ICHARG=0 $END 
 $SYSTEM MEMDDI=1000 MWORDS=30 $END
 $STATPT NSTEP=999 $END
 $SCF DIRSCF=.TRUE. $END
 $DATA

C1
N 7.0000000 -1.56617 1.06556 0.41142
C 6.0000000 -0.77232 -0.15995 0.40992
H 1.0000000 -0.73854 -0.56092 1.42951
C 6.0000000 -1.27783 -1.27543 -0.53666
C 6.0000000 0.65163 0.20235 0.01489
O 8.0000000 0.95784 1.10608 -0.73428
O 8.0000000 1.56335 -0.64180 0.55418
H 1.0000000 -1.37187 1.61297 -0.42388
H 1.0000000 -2.55961 0.85602 0.44055
H 1.0000000 -1.29197 -0.92317 -1.57396
H 1.0000000 -0.64958 -2.17073 -0.47475
H 1.0000000 -2.29822 -1.55708 -0.25474
H 1.0000000 2.43659 -0.37807 0.21585
 $END
