 $BASIS GBASIS=N21 NGAUSS=3 $END
 $CONTRL SCFTYP=UHF MAXIT=60 MULT=2 ICHARG=1 $END
 $SYSTEM MEMDDI=1000 MWORDS=30 $END
 $SCF DIRSCF=.TRUE. $END
 $STATPT OPTTOL=0.0001 NSTEP=999 $END
 $DATA

C1
N 7.0000000 -1.6337498954 1.0595747078 0.3522468566
C 6.0000000 -0.8020074463 -0.1426317415 0.4463194829
H 1.0000000 -0.7516357937 -0.5200463610 1.4755107676
C 6.0000000 -1.2466944124 -1.3145828814 -0.4775812992
C 6.0000000 0.6082050378 0.2483695868 0.0427726800
O 8.0000000 0.9440598083 1.2847898188 -0.5203907654
O 8.0000000 1.4920138520 -0.7638882782 0.3507298208
H 1.0000000 -1.2359947386 1.7311506364 -0.3079320774
H 1.0000000 -2.6181719387 0.8629467947 0.1746305888
H 1.0000000 -1.2668712245 -0.9731674330 -1.5184465715
H 1.0000000 -0.5541961610 -2.1554884004 -0.3824671700
H 1.0000000 -2.2526667045 -1.6445640201 -0.1954699513
H 1.0000000 2.4010096169 -0.4966324290 0.0381276381
 $END
