 $BASIS GBASIS=N31 NGAUSS=6 NDFUNC=1 NPFUNC=1 $END
 $CONTRL SCFTYP=RHF RUNTYP=OPTIMIZE DFTTYP=B3LYP MAXIT=60 MULT=1 ICHARG=0 $END 
 $SYSTEM MEMDDI=1000 MWORDS=30 $END
 $STATPT NSTEP=999 $END
 $SCF DIRSCF=.TRUE. $END
 $DATA

C1
O 8.0000000 0.79020 -2.39740 0.01270
O 8.0000000 2.61190 -0.26070 -0.29400
O 8.0000000 0.31720 0.66410 -0.81660
O 8.0000000 -3.05040 0.18040 -0.83400
O 8.0000000 4.76010 0.05040 -1.06200
O 8.0000000 -1.36090 2.09230 -1.48430
O 8.0000000 -4.90850 1.45320 -1.24770
C 6.0000000 0.92700 -1.68100 -1.24680
C 6.0000000 2.35640 -1.17590 -1.36350
C 6.0000000 -0.15580 -0.58350 -1.29990
C 6.0000000 -1.13320 -1.18280 -0.35950
C 6.0000000 -0.51910 -2.19060 0.36690
C 6.0000000 3.35400 -2.32710 -1.22400
C 6.0000000 2.57580 -0.44010 -2.68770
C 6.0000000 -2.44890 -0.85270 -0.09780
C 6.0000000 -1.17970 -2.88460 1.36400
C 6.0000000 -3.15480 -1.53830 0.89050
C 6.0000000 -2.51470 -2.55520 1.62170
C 6.0000000 3.86130 0.27990 -0.26520
C 6.0000000 -0.62770 1.63280 -0.62020
C 6.0000000 -4.53850 -1.16770 1.13740
C 6.0000000 -4.37170 0.55330 -0.61080
C 6.0000000 -5.10690 -0.18660 0.43200
C 6.0000000 3.97720 1.20400 0.90370
C 6.0000000 -0.63220 2.05800 0.81260
C 6.0000000 3.65380 2.65430 0.69900
C 6.0000000 -0.28170 1.04080 1.85780
C 6.0000000 4.39960 0.64640 2.05340
C 6.0000000 -0.98750 3.33500 1.04510
C 6.0000000 4.76240 -0.78620 2.28500
C 6.0000000 -1.37510 4.36550 0.03230
H 1.0000000 0.72260 -2.42290 -2.03390
H 1.0000000 -0.53900 -0.47190 -2.32030
H 1.0000000 3.03530 -3.18130 -1.83390
H 1.0000000 4.36930 -2.10010 -1.55860
H 1.0000000 3.42850 -2.67070 -0.18610
H 1.0000000 2.18450 0.58270 -2.66010
H 1.0000000 2.07540 -0.97000 -3.50720
H 1.0000000 3.62450 -0.36970 -2.99060
H 1.0000000 -0.68400 -3.66500 1.93080
H 1.0000000 -3.04970 -3.09530 2.39950
H 1.0000000 -5.09760 -1.69760 1.90050
H 1.0000000 -6.13840 0.09640 0.61100
H 1.0000000 3.79090 3.23290 1.61810
H 1.0000000 4.30280 3.08250 -0.07130
H 1.0000000 2.61340 2.76880 0.37940
H 1.0000000 -0.07090 1.53780 2.81220
H 1.0000000 -1.11300 0.35980 2.04170
H 1.0000000 0.61860 0.47410 1.60780
H 1.0000000 4.49960 1.29100 2.92470
H 1.0000000 -1.02750 3.66820 2.08070
H 1.0000000 5.75900 -0.83940 2.73560
H 1.0000000 4.78410 -1.39450 1.37910
H 1.0000000 4.05110 -1.23810 2.98310
H 1.0000000 -0.71050 4.37310 -0.83630
H 1.0000000 -1.29420 5.35960 0.48630
H 1.0000000 -2.41470 4.23400 -0.28170
 $END
