 $BASIS GBASIS=N21 NGAUSS=3 $END
 $CONTRL SCFTYP=RHF RUNTYP=OPTIMIZE DFTTYP=B3LYP MAXIT=60 MULT=1 ICHARG=0 $END 
 $SYSTEM MEMDDI=1000 MWORDS=30 $END
 $STATPT NSTEP=999 $END
 $SCF DIRSCF=.TRUE. $END
 $DATA

C1
N 7.0000000 0.33826 1.93810 0.12181
C 6.0000000 0.37063 0.50934 0.43972
H 1.0000000 0.30784 0.39640 1.52778
C 6.0000000 -0.85192 -0.20777 -0.20655
H 1.0000000 -0.84989 0.08630 -1.26738
C 6.0000000 -0.74211 -1.73972 -0.13267
C 6.0000000 -2.15761 0.30457 0.43839
C 6.0000000 -3.41692 0.03057 -0.39476
C 6.0000000 1.67891 -0.13295 -0.02475
O 8.0000000 2.19769 0.05778 -1.10688
O 8.0000000 2.22970 -0.94859 0.90873
H 1.0000000 1.00409 2.45486 0.69036
H 1.0000000 0.60145 2.07810 -0.85197
H 1.0000000 0.11818 -2.12095 -0.69290
H 1.0000000 -0.64667 -2.08039 0.90564
H 1.0000000 -1.63397 -2.21072 -0.55658
H 1.0000000 -2.26279 -0.15937 1.43038
H 1.0000000 -2.06297 1.38319 0.59844
H 1.0000000 -3.35571 0.52887 -1.36966
H 1.0000000 -3.57460 -1.03833 -0.57609
H 1.0000000 -4.30943 0.41041 0.11486
H 1.0000000 3.04359 -1.31994 0.52448
 $END
