 $BASIS GBASIS=N21 NGAUSS=3 $END
 $CONTRL SCFTYP=UHF MAXIT=60 MULT=2 ICHARG=1 $END
 $SYSTEM MEMDDI=1000 MWORDS=30 $END
 $SCF DIRSCF=.TRUE. $END
 $STATPT OPTTOL=0.0001 NSTEP=999 $END
 $DATA

C1
O 8.0000000 0.9930867785 0.5913392020 0.8105323961
C 6.0000000 0.7010498367 0.1415178444 -0.5260473667
C 6.0000000 1.7215147094 0.5872719420 -1.5684404004
C 6.0000000 0.4185177329 -1.3617034451 -0.4526579820
H 1.0000000 0.3549723891 -1.8135832322 -1.4475742556
O 8.0000000 1.4599728525 -1.9346016562 0.3847450356
C 6.0000000 -0.9810804109 -1.4029871373 0.1858769112
H 1.0000000 -0.8421148092 -1.3619316259 1.2750657782
O 8.0000000 -1.6157115261 -2.6358132754 -0.2482617345
C 6.0000000 -1.6545880794 -0.0943432616 -0.2950190208
H 1.0000000 -2.4127098276 -0.2937437984 -1.0550097955
O 8.0000000 -0.5704071129 0.7006312015 -0.9575299388
C 6.0000000 -2.1844509506 0.7828496686 0.8364831382
O 8.0000000 -2.6288728004 2.0573714167 0.2981524056
H 1.0000000 1.2319083567 -2.8852660578 0.5630465043
H 1.0000000 -2.4868846993 -2.7244746353 0.2239967896
H 1.0000000 -3.0531577084 0.3218107431 1.3159089087
H 1.0000000 -1.3671422978 0.8968449019 1.5604539514
H 1.0000000 -1.8338416173 2.3912344120 -0.2045766044
H 1.0000000 1.5127665951 0.0385970079 -2.5000872641
H 1.0000000 2.7227363124 0.3283780725 -1.2187620822
O 8.0000000 1.6841559845 2.0247772221 -1.7512261942
H 1.0000000 1.4881409331 -0.1801714957 1.2193216995
H 1.0000000 0.7158494590 2.2418859861 -1.8520306793
 $END
