 $BASIS GBASIS=N21 NGAUSS=3 $END
 $CONTRL SCFTYP=RHF RUNTYP=OPTIMIZE DFTTYP=B3LYP MAXIT=60 MULT=1 ICHARG=0 $END 
 $SYSTEM MEMDDI=1000 MWORDS=30 $END
 $STATPT NSTEP=999 $END
 $SCF DIRSCF=.TRUE. $END
 $DATA

C1
O 8.0000000 1.13234190 0.61030750 0.74266890
C 6.0000000 0.78075680 0.10270980 -0.53962520
C 6.0000000 1.82057490 0.45257120 -1.60903430
C 6.0000000 0.42999970 -1.38982930 -0.42660040
H 1.0000000 0.34089770 -1.83061230 -1.42896780
O 8.0000000 1.41852790 -2.06412560 0.33836530
C 6.0000000 -0.96116780 -1.33881460 0.21106600
H 1.0000000 -0.84549210 -1.28951400 1.30194440
O 8.0000000 -1.68041240 -2.51470150 -0.15687600
C 6.0000000 -1.55149690 -0.01827130 -0.33893890
H 1.0000000 -2.25621020 -0.23236430 -1.15063350
O 8.0000000 -0.43714090 0.70029750 -0.92378510
C 6.0000000 -2.24659980 0.82389950 0.71987750
O 8.0000000 -2.98106700 1.85867760 0.07208450
H 1.0000000 1.18967770 -3.00146330 0.39476950
H 1.0000000 -2.47980040 -2.59048810 0.38024260
H 1.0000000 -2.93227370 0.17690540 1.29470710
H 1.0000000 -1.48779380 1.22570020 1.40142180
H 1.0000000 -3.07018900 2.61208270 0.66780680
H 1.0000000 1.51314140 -0.02198770 -2.55379180
H 1.0000000 2.79316140 0.04441690 -1.31757680
O 8.0000000 1.98920470 1.84813100 -1.76866780
H 1.0000000 1.78595190 0.00763470 1.13138630
H 1.0000000 1.10911810 2.24472800 -1.84548290
 $END
