 $BASIS GBASIS=N31 NGAUSS=6 NDFUNC=1 NPFUNC=1 $END
 $CONTRL SCFTYP=RHF RUNTYP=OPTIMIZE DFTTYP=B3LYP MAXIT=60 MULT=1 ICHARG=0 $END 
 $SYSTEM MEMDDI=1000 MWORDS=30 $END
 $STATPT NSTEP=999 $END
 $SCF DIRSCF=.TRUE. $END
 $DATA

C1
C 6.0000000 -1.20250 -0.01410 0.01330
O 8.0000000 -2.38130 0.66390 0.02760
C 6.0000000 0.00020 0.68170 -0.01460
O 8.0000000 0.00100 2.04260 -0.02780
C 6.0000000 1.20220 -0.01590 -0.02860
O 8.0000000 2.38170 0.66050 -0.05560
C 6.0000000 1.19710 -1.40250 -0.01470
C 6.0000000 -0.00130 -2.09080 0.01320
C 6.0000000 -1.19880 -1.40070 0.03250
H 1.0000000 -2.73780 0.85150 -0.85150
H 1.0000000 0.01680 2.44440 0.85160
H 1.0000000 2.73810 0.86460 0.81990
H 1.0000000 2.13070 -1.94530 -0.02590
H 1.0000000 -0.00190 -3.17080 0.02360
H 1.0000000 -2.13300 -1.94210 0.05450
 $END
