 $BASIS GBASIS=N21 NGAUSS=3 $END
 $CONTRL SCFTYP=RHF RUNTYP=OPTIMIZE DFTTYP=B3LYP MAXIT=60 MULT=1 ICHARG=0 $END 
 $SYSTEM MEMDDI=1000 MWORDS=30 $END
 $STATPT NSTEP=999 $END
 $SCF DIRSCF=.TRUE. $END
 $DATA

C1
C 6.0000000 1.14970 0.46497 0.43591
H 1.0000000 1.20679 0.56130 1.52653
C 6.0000000 -0.15395 -0.20987 0.00081
C 6.0000000 -1.39267 0.57361 0.43856
C 6.0000000 -2.69145 -0.07056 0.00605
O 8.0000000 -2.80401 -1.09449 -0.63160
O 8.0000000 -3.76617 0.64758 0.42278
H 1.0000000 -0.17351 -0.32701 -1.08851
H 1.0000000 -0.20957 -1.22459 0.41072
H 1.0000000 -1.42778 0.69135 1.52985
H 1.0000000 -1.38025 1.59611 0.03767
H 1.0000000 2.01978 -0.11289 0.10859
H 1.0000000 1.24047 1.47131 0.01071
H 1.0000000 -4.54866 0.16671 0.10322
 $END
