 $BASIS GBASIS=N21 NGAUSS=3 $END
 $CONTRL SCFTYP=RHF MAXIT=60 MULT=1 ICHARG=0 $END
 $SYSTEM MEMDDI=1000 MWORDS=30 $END
 $SCF DIRSCF=.TRUE. $END
 $DATA

C1
C 6.0000000 1.1578927087 0.4656343449 0.4356959481
H 1.0000000 1.2071208368 0.5566764538 1.5276152982
C 6.0000000 -0.1568949435 -0.2113718528 0.0004690418
C 6.0000000 -1.3913920547 0.5872878379 0.4480183962
C 6.0000000 -2.6713764305 -0.0810582444 0.0005219824
O 8.0000000 -2.7737379010 -1.1178836572 -0.6445685671
O 8.0000000 -3.7692379822 0.6487863844 0.4215848032
H 1.0000000 -0.1834244358 -0.3210318089 -1.0895682611
H 1.0000000 -0.2184490105 -1.2226526579 0.4182037839
H 1.0000000 -1.4246121562 0.6920897799 1.5401206851
H 1.0000000 -1.3760519859 1.6050681378 0.0368904810
H 1.0000000 2.0226213257 -0.1187700457 0.1029875038
H 1.0000000 1.2385120950 1.4713597068 0.0058630860
H 1.0000000 -4.5922500659 0.1793956214 0.1074558186
 $END
