 $BASIS GBASIS=N31 NGAUSS=6 NDFUNC=1 NPFUNC=1 $END
 $CONTRL SCFTYP=RHF RUNTYP=OPTIMIZE DFTTYP=B3LYP MAXIT=60 MULT=1 ICHARG=0 $END 
 $SYSTEM MEMDDI=1000 MWORDS=30 $END
 $STATPT NSTEP=999 $END
 $SCF DIRSCF=.TRUE. $END
 $DATA

C1
C 6.0000000 2.56440 -1.65630 -0.05460
C 6.0000000 -2.56440 1.65630 -0.05480
H 1.0000000 4.09200 2.00310 1.10850
H 1.0000000 -4.09220 -2.00250 1.10850
H 1.0000000 5.15160 -0.92850 0.90550
H 1.0000000 -5.15130 0.92840 0.90600
C 6.0000000 2.95800 0.73550 0.12980
C 6.0000000 -2.95800 -0.73550 0.12930
C 6.0000000 3.42880 -0.57470 0.03370
C 6.0000000 -3.42880 0.57470 0.03350
O 8.0000000 0.45270 -3.55410 -0.67830
O 8.0000000 -0.45260 3.55410 -0.67850
O 8.0000000 3.83790 1.76820 0.20550
O 8.0000000 -3.83800 -1.76820 0.20540
O 8.0000000 4.77010 -0.79720 0.02670
O 8.0000000 -4.77010 0.79720 0.02710
C 6.0000000 0.17330 -2.48090 -0.17890
C 6.0000000 -0.17330 2.48080 -0.17900
C 6.0000000 1.58960 0.98680 0.14700
C 6.0000000 1.19440 -1.42960 -0.05330
C 6.0000000 -1.58960 -0.98680 0.14700
C 6.0000000 -1.19440 1.42950 -0.05340
O 8.0000000 1.08210 2.23850 0.26820
O 8.0000000 -1.08220 -2.23850 0.26830
C 6.0000000 0.72670 -0.10240 0.05520
C 6.0000000 -0.72670 0.10240 0.05520
H 1.0000000 2.95220 -2.66160 -0.12790
H 1.0000000 -2.95220 2.66190 -0.12410
 $END
