 $BASIS GBASIS=N31 NGAUSS=6 NDFUNC=1 NPFUNC=1 $END
 $CONTRL SCFTYP=RHF RUNTYP=OPTIMIZE DFTTYP=B3LYP MAXIT=60 MULT=1 ICHARG=0 $END 
 $SYSTEM MEMDDI=1000 MWORDS=30 $END
 $STATPT NSTEP=999 $END
 $SCF DIRSCF=.TRUE. $END
 $DATA

C1
C 6.0000000 4.22890 -0.52730 0.32790
C 6.0000000 2.86060 0.09890 0.24810
C 6.0000000 1.78220 -0.67000 0.18450
C 6.0000000 0.44040 -0.05590 0.10620
C 6.0000000 -0.69560 -0.86390 0.03910
C 6.0000000 -1.94910 -0.28460 -0.03350
O 8.0000000 -3.05810 -1.06910 -0.09850
C 6.0000000 -2.85380 -2.48340 -0.08750
C 6.0000000 -2.07590 1.10240 -0.03960
O 8.0000000 -3.30900 1.67060 -0.11050
C 6.0000000 -0.94680 1.90510 0.02710
C 6.0000000 0.30610 1.33320 0.10510
O 8.0000000 5.11240 0.14180 -0.57410
H 1.0000000 4.61110 -0.43700 1.34480
H 1.0000000 4.16260 -1.58100 0.05700
H 1.0000000 2.75820 1.17410 0.24280
H 1.0000000 1.88460 -1.74510 0.18980
H 1.0000000 -0.59580 -1.93920 0.04350
H 1.0000000 -3.81720 -2.99010 -0.14390
H 1.0000000 -2.24250 -2.76890 -0.94360
H 1.0000000 -2.34590 -2.77000 0.83330
H 1.0000000 -3.71690 1.83410 0.75080
H 1.0000000 -1.04900 2.98030 0.02180
H 1.0000000 1.18370 1.96060 0.15690
H 1.0000000 6.01330 -0.20960 -0.57570
 $END
