 $BASIS GBASIS=N21 NGAUSS=3 $END
 $CONTRL SCFTYP=RHF RUNTYP=OPTIMIZE DFTTYP=B3LYP MAXIT=60 MULT=1 ICHARG=0 $END 
 $SYSTEM MEMDDI=1000 MWORDS=30 $END
 $STATPT NSTEP=999 $END
 $SCF DIRSCF=.TRUE. $END
 $DATA

C1
O 8.0000000 0.69170 1.59340 -0.81520
O 8.0000000 -0.53970 -0.95590 -1.40090
O 8.0000000 1.94650 -1.28770 1.00820
O 8.0000000 -2.15540 0.99230 1.22760
O 8.0000000 4.32430 -0.30510 0.01900
O 8.0000000 -4.11700 -0.59800 0.38760
C 6.0000000 0.61880 0.49930 0.10500
C 6.0000000 -0.67290 -0.30200 -0.13300
C 6.0000000 1.92480 -0.29740 -0.03020
C 6.0000000 -1.99370 0.47820 -0.09010
C 6.0000000 3.18600 0.54480 0.13060
C 6.0000000 -3.21340 -0.36180 -0.40860
H 1.0000000 0.56580 0.93630 1.10960
H 1.0000000 -0.71800 -1.10000 0.61860
H 1.0000000 1.97150 -0.82850 -0.98720
H 1.0000000 -1.97970 1.31200 -0.80040
H 1.0000000 3.22710 1.01290 1.11920
H 1.0000000 3.26320 1.32500 -0.63220
H 1.0000000 0.78800 1.22500 -1.70960
H 1.0000000 -0.61300 -0.27800 -2.09400
H 1.0000000 -3.25850 -0.75860 -1.43740
H 1.0000000 1.91470 -0.82570 1.86340
H 1.0000000 -2.91890 1.59460 1.21440
H 1.0000000 4.30930 -0.69890 -0.87000
 $END
