 $BASIS GBASIS=N31 NGAUSS=6 NDFUNC=1 NPFUNC=1 $END
 $CONTRL SCFTYP=RHF RUNTYP=OPTIMIZE DFTTYP=B3LYP MAXIT=60 MULT=1 ICHARG=0 $END 
 $SYSTEM MEMDDI=1000 MWORDS=30 $END
 $STATPT NSTEP=999 $END
 $SCF DIRSCF=.TRUE. $END
 $DATA

C1
O 8.0000000 -0.10190 2.23340 -0.86290
O 8.0000000 -3.81690 -0.99910 2.06030
O 8.0000000 -5.14110 -0.64880 0.20010
O 8.0000000 0.34170 4.02300 0.52920
O 8.0000000 5.98310 -0.98430 1.45280
C 6.0000000 -1.79820 -0.56790 -0.42450
C 6.0000000 -2.90590 0.18830 0.28600
C 6.0000000 -0.34910 -0.13020 -0.14940
C 6.0000000 -2.75850 0.30120 -1.20940
C 6.0000000 0.63050 -0.69440 -1.25580
C 6.0000000 -1.96000 -2.06810 -0.50720
C 6.0000000 0.44500 -2.26320 -1.29810
C 6.0000000 -0.19790 1.36810 0.25940
C 6.0000000 -1.02230 -2.66590 -1.54680
C 6.0000000 -2.52440 1.31880 1.13380
C 6.0000000 -4.08920 -0.52250 0.81230
C 6.0000000 2.08750 -0.36350 -0.85610
C 6.0000000 -1.30580 1.87570 1.14070
C 6.0000000 0.38190 -0.08160 -2.65240
C 6.0000000 1.33410 -3.00340 -2.30750
C 6.0000000 2.44540 -1.03340 0.46210
C 6.0000000 3.85430 -0.72000 0.86960
C 6.0000000 0.17420 3.54440 -0.58440
C 6.0000000 -4.88420 -1.71300 2.69230
C 6.0000000 0.24610 4.33370 -1.85640
C 6.0000000 4.39080 0.55640 1.07520
C 6.0000000 4.83850 -1.62870 1.10480
C 6.0000000 5.70220 0.34510 1.43250
H 1.0000000 -0.13730 -0.67540 0.78160
H 1.0000000 -2.40320 1.23130 -1.63650
H 1.0000000 -3.47950 -0.19390 -1.85180
H 1.0000000 -1.74920 -2.50960 0.47500
H 1.0000000 -2.98550 -2.35460 -0.76900
H 1.0000000 0.66520 -2.68650 -0.31260
H 1.0000000 0.73740 1.44930 0.82900
H 1.0000000 -1.33560 -2.35370 -2.55020
H 1.0000000 -1.11920 -3.75860 -1.51860
H 1.0000000 -3.27550 1.74220 1.79710
H 1.0000000 2.22700 0.72230 -0.79080
H 1.0000000 2.78610 -0.68840 -1.63780
H 1.0000000 -1.12230 2.69440 1.82880
H 1.0000000 -0.65140 -0.20570 -2.98570
H 1.0000000 0.61510 0.98500 -2.68580
H 1.0000000 1.02560 -0.53950 -3.41040
H 1.0000000 1.19690 -4.08650 -2.20760
H 1.0000000 1.08670 -2.74400 -3.34100
H 1.0000000 2.39590 -2.80410 -2.14220
H 1.0000000 2.38250 -2.12280 0.40450
H 1.0000000 1.80990 -0.70860 1.29010
H 1.0000000 -4.53940 -2.03740 3.67770
H 1.0000000 -5.14830 -2.59700 2.10390
H 1.0000000 -5.75260 -1.06000 2.82110
H 1.0000000 0.46100 5.38030 -1.62290
H 1.0000000 1.04900 3.94480 -2.48770
H 1.0000000 -0.71290 4.28250 -2.37790
H 1.0000000 3.90290 1.51630 0.98400
H 1.0000000 4.90030 -2.70690 1.07450
H 1.0000000 6.52150 1.00000 1.69110
 $END
