 $BASIS GBASIS=N21 NGAUSS=3 $END
 $CONTRL SCFTYP=RHF DFTTYP=B3LYP MAXIT=60 MULT=1 ICHARG=0 $END
 $SYSTEM MEMDDI=1000 MWORDS=30 $END
 $SCF DIRSCF=.TRUE. $END
 $ELPOT  IEPOT=1 WHERE=PDC $END
 $PDC PTSEL=CHELPG CONSTR=CHARGE $END
 $DATA

C1
C 6.0000000 -2.6822669593 -1.2584451747 0.0692899972
C 6.0000000 4.5691837382 2.4076871373 -1.5687932000
H 1.0000000 -0.8222618431 -4.6607640036 -0.6130933337
H 1.0000000 3.5333274715 0.0776366817 2.2436987635
O 8.0000000 -3.6664797890 1.2464097717 -1.3974397824
O 8.0000000 5.1067139515 1.6949419162 1.1602111191
O 8.0000000 1.5186199291 -1.1941877310 1.4784778648
C 6.0000000 0.7306870918 -2.3441040638 -1.0831944888
O 8.0000000 -0.9896965111 -3.8759518092 -0.0260813741
O 8.0000000 -1.5239291126 1.9679760177 0.1957897501
O 8.0000000 -3.8859057478 2.3697732321 1.0782589531
O 8.0000000 -3.0419816173 -0.0804736779 0.8772900001
C 6.0000000 -1.1846994012 -1.4972780520 0.0987782462
C 6.0000000 0.7474063148 -0.7977317067 -1.1820916042
C 6.0000000 -0.7529740667 -2.6710703305 -0.7904115552
C 6.0000000 3.7415542192 1.4166902921 -0.7961199696
C 6.0000000 4.1417976405 1.1744482844 0.5899458989
C 6.0000000 2.1937763098 -0.4177423268 0.7884204507
H 1.0000000 -0.8706926544 1.2151274230 -0.0186858769
H 1.0000000 -4.8111427351 2.5572326675 0.7661201159
O 8.0000000 -0.4994661782 -0.3368498471 -0.5442879589
C 6.0000000 2.6743979646 0.7649977830 -1.2955396951
P 15.0000000 -3.0559707708 1.3844929736 0.0266247625
N 7.0000000 1.9174272750 -0.1555620924 -0.5680455925
N 7.0000000 3.3040235676 0.2557454602 1.2673808729
H 1.0000000 -3.1755257268 -2.1239834034 0.5156037296
H 1.0000000 -3.0213608625 -1.1093945104 -0.9626969223
H 1.0000000 -0.7884259425 -1.6302926473 1.1044216316
H 1.0000000 0.7240969952 -0.4553428853 -2.2181021792
H 1.0000000 1.1098932747 -2.8040408152 -1.9988739751
H 1.0000000 1.2986037592 -2.6650819500 -0.2114789432
H 1.0000000 -1.3365910866 -2.6415742417 -1.7233854754
H 1.0000000 2.3415693962 0.9235416601 -2.3143985615
H 1.0000000 4.4921941659 3.4022546296 -1.1143494400
H 1.0000000 5.6255180330 2.1187555430 -1.5376936811
H 1.0000000 4.2455699073 2.4701497955 -2.6117385473
 $END
