 $BASIS GBASIS=N21 NGAUSS=3 $END
 $CONTRL SCFTYP=RHF RUNTYP=OPTIMIZE DFTTYP=B3LYP MAXIT=60 MULT=1 ICHARG=0 $END 
 $SYSTEM MEMDDI=1000 MWORDS=30 $END
 $STATPT NSTEP=999 $END
 $SCF DIRSCF=.TRUE. $END
 $DATA

C1
O 8.0000000 3.91341510 1.09858380 -0.56452380
C 6.0000000 2.50737130 1.05158230 -0.46250860
C 6.0000000 2.06690880 -0.35315220 -0.09381990
O 8.0000000 2.83124750 -1.19054590 0.34798880
C 6.0000000 0.59611080 -0.73085340 -0.31510710
H 1.0000000 0.42615320 -0.76739170 -1.40275560
O 8.0000000 0.35224340 -1.99811320 0.26936900
C 6.0000000 -0.40577530 0.27222030 0.29339920
H 1.0000000 -0.14517010 1.29100510 -0.01596330
O 8.0000000 -0.32670500 0.23743760 1.71088020
C 6.0000000 -1.83594770 -0.00429940 -0.20004890
H 1.0000000 -2.11577030 -1.03612540 0.06084460
O 8.0000000 -1.81595040 0.15497230 -1.61835470
C 6.0000000 -2.84961830 0.95096470 0.42238730
O 8.0000000 -4.10148370 0.66051770 -0.21658460
H 1.0000000 4.18792110 2.01766010 -0.67454550
H 1.0000000 2.12609820 1.71501160 0.33196450
H 1.0000000 2.01095650 1.34534640 -1.40153850
H 1.0000000 1.23002160 -2.37115560 0.47811320
H 1.0000000 -0.27098260 -0.70115380 1.95771070
H 1.0000000 -2.73934770 0.17027100 -1.91252050
H 1.0000000 -2.90803990 0.79110660 1.50448440
H 1.0000000 -2.54819130 1.99017680 0.22442160
H 1.0000000 -4.76566520 1.30273430 0.06150760
 $END
