 $BASIS GBASIS=N21 NGAUSS=3 $END
 $CONTRL SCFTYP=RHF MAXIT=60 MULT=1 ICHARG=0 $END
 $SYSTEM MEMDDI=1000 MWORDS=30 $END
 $SCF DIRSCF=.TRUE. $END
 $DATA

C1
O 8.0000000 3.9286894678 1.0572931887 -0.5415047047
C 6.0000000 2.4833712585 1.0366658812 -0.5734078136
C 6.0000000 2.0382411208 -0.3161328909 -0.0606686607
O 8.0000000 2.7793525845 -1.1164965879 0.5209794551
C 6.0000000 0.5827751173 -0.7030124452 -0.3063454594
H 1.0000000 0.3680867719 -0.7720782624 -1.3800863918
O 8.0000000 0.3566307559 -1.9691520766 0.3895138932
C 6.0000000 -0.4106853106 0.2920531172 0.3333928366
H 1.0000000 -0.1524239427 1.3242605970 0.0822451324
O 8.0000000 -0.3611362355 0.1191388882 1.7705070764
C 6.0000000 -1.8097792831 0.0120040602 -0.1975476768
H 1.0000000 -2.0568528533 -1.0438716062 -0.0214302865
O 8.0000000 -1.7742683519 0.3333341702 -1.6181624140
C 6.0000000 -2.8575273233 0.8918365971 0.4754326183
O 8.0000000 -4.0574996409 0.6545941763 -0.3418149507
H 1.0000000 4.2228282421 1.9828265842 -0.7543373623
H 1.0000000 2.0246305856 1.7948824250 0.0848288216
H 1.0000000 2.0558384288 1.1793291705 -1.5799152545
H 1.0000000 1.2883650935 -2.2597941753 0.6498479494
H 1.0000000 -0.2119415732 -0.8768666587 1.8360286095
H 1.0000000 -2.7420965883 0.4338905362 -1.8527417088
H 1.0000000 -2.9752318416 0.6020751970 1.5234447944
H 1.0000000 -2.5364112319 1.9417193777 0.4183462882
H 1.0000000 -4.7631552505 1.2983007365 -0.0718046914
 $END
