 $BASIS GBASIS=N21 NGAUSS=3 $END
 $CONTRL SCFTYP=UHF MAXIT=60 MULT=2 ICHARG=1 $END
 $SYSTEM MEMDDI=1000 MWORDS=30 $END
 $SCF DIRSCF=.TRUE. $END
 $STATPT OPTTOL=0.0001 NSTEP=999 $END
 $DATA

C1
C 6.0000000 -2.49753 -0.59686 -1.63028
C 6.0000000 -3.36637 1.06612 0.03147
C 6.0000000 2.22048 1.94518 -1.34781
C 6.0000000 -1.98560 -0.99731 0.84808
C 6.0000000 -0.51165 1.92664 0.48241
C 6.0000000 1.57236 -1.62161 -0.74331
C 6.0000000 0.96626 2.29246 0.87084
C 6.0000000 2.83113 -0.90290 -0.16213
C 6.0000000 0.42552 -1.87038 0.23286
C 6.0000000 1.95748 1.48475 0.06481
C 6.0000000 2.38545 0.32228 0.58628
C 6.0000000 -0.74617 0.53181 -0.13407
C 6.0000000 -0.44731 -0.72227 0.76506
C 6.0000000 -2.25020 0.06020 -0.26398
C 6.0000000 0.19328 -3.12446 0.65355
H 1.0000000 -0.24156 0.49548 -1.10458
H 1.0000000 -0.04097 -0.42282 1.73760
H 1.0000000 -2.30916 -2.01676 0.61698
H 1.0000000 -2.41063 -0.71079 1.81638
H 1.0000000 -1.12658 2.04975 1.38223
H 1.0000000 -0.88739 2.66600 -0.23668
H 1.0000000 -1.72557 -1.33708 -1.86763
H 1.0000000 -3.46674 -1.11122 -1.64722
H 1.0000000 -2.50078 0.15507 -2.43030
H 1.0000000 -3.39851 1.86688 -0.71804
H 1.0000000 -4.33909 0.55831 0.01219
H 1.0000000 -3.26104 1.53069 1.01707
H 1.0000000 1.20850 -1.01795 -1.58428
H 1.0000000 1.88158 -2.58617 -1.16348
H 1.0000000 1.10602 3.37407 0.74180
H 1.0000000 1.11910 2.08058 1.93478
H 1.0000000 -0.61181 -3.36385 1.34318
H 1.0000000 0.80911 -3.95735 0.32361
H 1.0000000 3.36186 -1.58820 0.50884
H 1.0000000 3.51044 -0.67588 -0.99250
H 1.0000000 2.14643 0.14170 1.63399
H 1.0000000 2.70007 2.93353 -1.33372
H 1.0000000 2.87423 1.26579 -1.90109
H 1.0000000 1.28969 2.06182 -1.91912
 $END
