 $BASIS GBASIS=N31 NGAUSS=6 NDFUNC=1 NPFUNC=1 $END
 $CONTRL SCFTYP=RHF RUNTYP=OPTIMIZE DFTTYP=B3LYP MAXIT=60 MULT=1 ICHARG=0 $END 
 $SYSTEM MEMDDI=1000 MWORDS=30 $END
 $STATPT NSTEP=999 $END
 $SCF DIRSCF=.TRUE. $END
 $DATA

C1
O 8.0000000 3.44250 1.22550 -0.52980
O 8.0000000 4.81010 -0.41880 0.53510
O 8.0000000 -0.21090 -1.73340 -0.25300
O 8.0000000 -0.93700 3.09250 -0.11740
O 8.0000000 -4.62900 -1.86250 0.14160
O 8.0000000 -1.96540 -3.20870 -0.11980
C 6.0000000 2.72850 -1.12440 -0.50600
C 6.0000000 1.60550 -0.16970 -0.38450
C 6.0000000 3.92030 -0.14230 -0.57280
C 6.0000000 0.24520 -0.39710 -0.26930
C 6.0000000 -0.64650 0.67920 -0.17480
C 6.0000000 2.08170 1.12910 -0.41290
C 6.0000000 -2.06350 0.37070 -0.05320
C 6.0000000 -3.15650 1.38190 0.06100
C 6.0000000 3.05400 -1.89890 0.70980
C 6.0000000 -2.46020 -0.90250 -0.03810
C 6.0000000 -0.13820 1.99010 -0.20280
C 6.0000000 -4.43210 0.54720 0.16260
C 6.0000000 1.23660 2.22120 -0.32360
C 6.0000000 -3.92380 -0.86610 0.09360
C 6.0000000 4.20490 -1.45880 1.20310
C 6.0000000 -1.56320 -2.05250 -0.13730
C 6.0000000 -1.20310 3.59840 1.18840
H 1.0000000 2.65910 -1.74180 -1.40660
H 1.0000000 4.49100 -0.27150 -1.50110
H 1.0000000 -3.20580 2.04630 -0.80740
H 1.0000000 -3.08450 1.97260 0.97400
H 1.0000000 2.46560 -2.70460 1.12130
H 1.0000000 -5.10540 0.74300 -0.67680
H 1.0000000 -4.94980 0.71380 1.11160
H 1.0000000 1.63340 3.23130 -0.34680
H 1.0000000 4.73300 -1.80670 2.07280
H 1.0000000 -2.15460 4.13690 1.16910
H 1.0000000 -1.24650 2.80620 1.94360
H 1.0000000 -0.41470 4.30640 1.46300
 $END
