 $BASIS GBASIS=N21 NGAUSS=3 $END
 $CONTRL SCFTYP=UHF MAXIT=60 MULT=2 ICHARG=1 $END
 $SYSTEM MEMDDI=1000 MWORDS=30 $END
 $SCF DIRSCF=.TRUE. $END
 $STATPT OPTTOL=0.0001 NSTEP=999 $END
 $DATA

C1
C 6.0000000 1.85164 2.74535 -0.14975
C 6.0000000 2.15696 4.22544 0.09519
C 6.0000000 4.05337 2.06084 0.36784
C 6.0000000 3.64678 4.46715 -0.14571
C 6.0000000 4.51483 3.49470 0.65787
C 6.0000000 4.53705 -1.39804 1.47581
C 6.0000000 3.45799 -2.42900 1.08380
C 6.0000000 3.72203 -2.84447 -0.36629
C 6.0000000 6.15628 -2.35925 -0.02847
C 6.0000000 5.13496 -3.41450 -0.48318
C 6.0000000 -1.50911 1.37573 -0.04204
C 6.0000000 0.57329 0.23510 -0.65931
C 6.0000000 -6.26439 0.67721 -0.07809
C 6.0000000 -6.62365 -1.71905 -0.12828
C 6.0000000 -7.97657 -1.52730 0.15364
C 6.0000000 4.77451 0.98706 1.16193
C 6.0000000 -10.72259 -0.94246 0.76327
C 6.0000000 7.57678 -2.89558 0.02357
H 1.0000000 -0.27583 -2.64433 -1.72348
H 1.0000000 -9.03920 2.05793 0.55325
H 1.0000000 0.50588 4.96882 -0.60768
H 1.0000000 3.47669 6.39222 -0.27636
H 1.0000000 6.08743 4.56206 0.33995
H 1.0000000 3.31993 -3.31914 2.81275
H 1.0000000 1.99629 -3.34059 -1.08249
H 1.0000000 4.61938 -4.19971 -2.14822
C 6.0000000 -0.15911 -0.89405 -1.03211
C 6.0000000 -0.11642 1.36113 -0.18396
C 6.0000000 -5.75665 -0.62460 -0.25311
C 6.0000000 -7.60809 0.87408 0.20199
C 6.0000000 -8.47360 -0.23606 0.31757
O 8.0000000 -1.81592 -3.10507 -1.76252
O 8.0000000 0.46401 -1.99004 -1.50671
O 8.0000000 -8.09078 2.13455 0.36476
O 8.0000000 1.44941 5.08601 -0.78495
O 8.0000000 4.03804 5.78220 0.22328
O 8.0000000 5.87841 3.61731 0.29666
O 8.0000000 3.52252 -3.58337 1.90585
O 8.0000000 2.81422 -3.81494 -0.86447
O 8.0000000 5.41911 -3.74951 -1.83476
O 8.0000000 0.50043 2.53066 0.18645
O 8.0000000 -9.76900 0.10178 0.59909
O 8.0000000 4.25439 -0.25073 0.70120
C 6.0000000 -2.35485 -2.07618 -1.28716
C 6.0000000 -4.33085 -0.83144 -0.54855
C 6.0000000 -1.57359 -0.90976 -0.90735
C 6.0000000 -2.21022 0.23269 -0.39791
O 8.0000000 -3.57132 0.25453 -0.22733
O 8.0000000 2.66016 1.95748 0.69200
O 8.0000000 5.84292 -1.88154 1.29955
C 6.0000000 -3.77939 -1.95743 -1.08207
H 1.0000000 -2.01801 2.25224 0.33842
H 1.0000000 -4.40389 -2.79186 -1.37205
H 1.0000000 1.65402 0.20309 -0.69150
H 1.0000000 -5.61945 1.54302 -0.16179
H 1.0000000 -6.24677 -2.73112 -0.22042
H 1.0000000 2.01825 2.48430 -1.20895
H 1.0000000 -8.62816 -2.38716 0.25474
H 1.0000000 1.92003 4.44049 1.14773
H 1.0000000 4.20340 1.84931 -0.70301
H 1.0000000 3.85069 4.29685 -1.21614
H 1.0000000 4.36687 3.70479 1.72997
H 1.0000000 5.85523 1.06771 0.99715
H 1.0000000 4.57002 1.11504 2.23587
H 1.0000000 -10.82270 -1.53544 -0.15352
H 1.0000000 -10.44880 -1.60090 1.59625
H 1.0000000 -11.67164 -0.45304 0.98442
H 1.0000000 4.47209 -1.15434 2.54815
H 1.0000000 2.47574 -1.93839 1.15990
H 1.0000000 3.67810 -1.93552 -0.98166
H 1.0000000 6.09917 -1.51901 -0.73460
H 1.0000000 5.21323 -4.29812 0.16710
H 1.0000000 7.64748 -3.70989 0.75201
H 1.0000000 7.86093 -3.27800 -0.95996
H 1.0000000 8.27591 -2.10695 0.31664
 $END
