 $BASIS GBASIS=N21 NGAUSS=3 $END
 $CONTRL SCFTYP=RHF RUNTYP=OPTIMIZE DFTTYP=B3LYP MAXIT=60 MULT=1 ICHARG=0 $END 
 $SYSTEM MEMDDI=1000 MWORDS=30 $END
 $STATPT NSTEP=999 $END
 $SCF DIRSCF=.TRUE. $END
 $DATA

C1
C 6.0000000 -0.54890 0.22274 -0.41089
H 1.0000000 -0.49802 -0.32144 -1.35958
C 6.0000000 0.59047 -0.16956 0.53650
C 6.0000000 2.00817 0.15538 0.02331
C 6.0000000 3.05114 -0.11772 1.11761
C 6.0000000 2.36019 -0.61131 -1.26050
H 1.0000000 0.44517 0.34309 1.49704
H 1.0000000 0.53191 -1.24572 0.75638
H 1.0000000 2.03826 1.23164 -0.20816
H 1.0000000 2.84331 0.46410 2.02252
H 1.0000000 3.05427 -1.17857 1.39857
H 1.0000000 4.06147 0.13698 0.77854
H 1.0000000 1.67529 -0.37765 -2.08152
H 1.0000000 3.37375 -0.36660 -1.59702
H 1.0000000 2.32066 -1.69485 -1.09011
H 1.0000000 -1.52434 0.00660 0.03760
H 1.0000000 -0.51986 1.29428 -0.64177
 $END
