 $BASIS GBASIS=N21 NGAUSS=3 $END
 $CONTRL SCFTYP=RHF DFTTYP=B3LYP MAXIT=60 MULT=1 ICHARG=0 $END
 $SYSTEM MEMDDI=1000 MWORDS=30 $END
 $SCF DIRSCF=.TRUE. $END
 $ELPOT  IEPOT=1 WHERE=PDC $END
 $PDC PTSEL=GEODESIC CONSTR=CHARGE $END
 $DATA

C1
C 6.0000000 -0.5510864931 0.2304410821 -0.4160109641
H 1.0000000 -0.4762820208 -0.3001465854 -1.3711204472
C 6.0000000 0.5892031644 -0.1783167446 0.5424820272
C 6.0000000 2.0069101320 0.1705582219 0.0205122504
C 6.0000000 3.0576394523 -0.1128789466 1.1191165212
C 6.0000000 2.3571107742 -0.6208478113 -1.2592888148
H 1.0000000 0.4416498195 0.3261304470 1.5073826341
H 1.0000000 0.5447971900 -1.2601682681 0.7331115581
H 1.0000000 2.0292734221 1.2452797728 -0.2138970934
H 1.0000000 2.8461816428 0.4707287206 2.0230419895
H 1.0000000 3.0446138650 -1.1775264079 1.3859397901
H 1.0000000 4.0658439077 0.1410879618 0.7706328595
H 1.0000000 1.6602854426 -0.3992757972 -2.0745115066
H 1.0000000 3.3693441967 -0.3720028362 -1.5998834884
H 1.0000000 2.3195435806 -1.6986372404 -1.0544398018
H 1.0000000 -1.5282070904 -0.0009689060 0.0235571174
H 1.0000000 -0.5138809858 1.3079333376 -0.6181046314
 $END
