 $BASIS GBASIS=N31 NGAUSS=6 NDFUNC=1 NPFUNC=1 $END
 $CONTRL SCFTYP=RHF RUNTYP=OPTIMIZE DFTTYP=B3LYP MAXIT=60 MULT=1 ICHARG=0 $END 
 $SYSTEM MEMDDI=1000 MWORDS=30 $END
 $STATPT NSTEP=999 $END
 $SCF DIRSCF=.TRUE. $END
 $DATA

C1
C 6.0000000 -12.35870 1.91380 1.25720
C 6.0000000 -11.89320 -0.29390 2.32250
C 6.0000000 -10.68510 -1.08860 -2.09250
C 6.0000000 -7.72120 2.13730 -0.12900
C 6.0000000 -2.92330 1.96600 -0.12700
C 6.0000000 2.92240 -1.96480 -0.14330
C 6.0000000 7.72020 -2.13620 -0.14140
C 6.0000000 12.36980 -1.92730 1.23010
C 6.0000000 11.91250 0.26800 2.32410
C 6.0000000 10.66720 1.11190 -2.07150
C 6.0000000 -13.78520 -0.06100 0.71000
C 6.0000000 -13.01120 -1.58840 -1.09330
C 6.0000000 -13.73010 -1.52460 0.25580
C 6.0000000 13.79100 0.05410 0.69320
C 6.0000000 13.00140 1.60140 -1.08620
C 6.0000000 13.73150 1.52270 0.25600
C 6.0000000 -7.78410 0.63170 -0.13660
C 6.0000000 -2.98630 0.46030 -0.13460
C 6.0000000 2.98530 -0.45920 -0.13570
C 6.0000000 7.78320 -0.63050 -0.13370
C 6.0000000 -11.43280 0.05250 -0.08270
C 6.0000000 -11.71760 -0.83000 -1.02570
C 6.0000000 11.43210 -0.05150 -0.08090
C 6.0000000 11.70860 0.84170 -1.01630
C 6.0000000 -10.17740 0.70850 -0.13760
C 6.0000000 -9.02970 -0.01970 -0.14060
C 6.0000000 -6.63140 -0.09970 -0.13960
C 6.0000000 -5.38950 0.54970 -0.13560
C 6.0000000 -4.22650 -0.18820 -0.13860
C 6.0000000 -1.82220 -0.27820 -0.13760
C 6.0000000 -0.58270 0.36990 -0.13360
C 6.0000000 0.58170 -0.36880 -0.13670
C 6.0000000 1.82120 0.27940 -0.13270
C 6.0000000 4.22550 0.18930 -0.13170
C 6.0000000 5.38850 -0.54850 -0.13470
C 6.0000000 6.63040 0.10090 -0.13070
C 6.0000000 9.02880 0.02080 -0.12970
C 6.0000000 10.17650 -0.70730 -0.13270
C 6.0000000 -12.36430 0.39900 1.04230
C 6.0000000 12.37310 -0.41020 1.03220
H 1.0000000 -10.13290 1.78680 -0.17710
H 1.0000000 -14.19180 0.55600 -0.09140
H 1.0000000 -14.41420 0.02390 1.59620
H 1.0000000 -12.59850 2.41470 0.31930
H 1.0000000 -13.10190 2.17670 2.00990
H 1.0000000 -11.37170 2.22910 1.59550
H 1.0000000 -10.88550 0.04160 2.56750
H 1.0000000 -12.56850 -0.04350 3.14070
H 1.0000000 -11.89020 -1.37340 2.17140
H 1.0000000 -12.80720 -2.62910 -1.34530
H 1.0000000 -13.64710 -1.15040 -1.86270
H 1.0000000 -10.04700 -1.91790 -1.78720
H 1.0000000 -11.18460 -1.33990 -3.02820
H 1.0000000 -10.07700 -0.19520 -2.23390
H 1.0000000 -9.07480 -1.09870 -0.14600
H 1.0000000 -13.18310 -2.11560 0.99040
H 1.0000000 -14.74280 -1.91350 0.14970
H 1.0000000 -6.67650 -1.17880 -0.14500
H 1.0000000 -7.70660 2.49520 0.90050
H 1.0000000 -6.81650 2.46580 -0.64060
H 1.0000000 -8.59490 2.54010 -0.64130
H 1.0000000 -5.34440 1.62870 -0.13010
H 1.0000000 -4.27160 -1.26720 -0.14400
H 1.0000000 -1.86730 -1.35730 -0.14310
H 1.0000000 -2.90880 2.32380 0.90250
H 1.0000000 -2.01870 2.29440 -0.63860
H 1.0000000 -3.79710 2.36880 -0.63930
H 1.0000000 -0.53760 1.44900 -0.12820
H 1.0000000 0.53660 -1.44780 -0.14210
H 1.0000000 1.86630 1.35840 -0.12720
H 1.0000000 4.27060 1.26840 -0.12620
H 1.0000000 2.90780 -2.32270 -1.17280
H 1.0000000 3.79610 -2.36760 0.36900
H 1.0000000 2.01770 -2.29330 0.36830
H 1.0000000 5.34340 -1.62760 -0.14020
H 1.0000000 6.67550 1.17990 -0.12530
H 1.0000000 9.07390 1.09990 -0.12430
H 1.0000000 7.70570 -2.49400 -1.17080
H 1.0000000 8.59400 -2.53900 0.37100
H 1.0000000 6.81560 -2.46460 0.37030
H 1.0000000 10.13180 -1.78560 -0.17460
H 1.0000000 14.19100 -0.55370 -0.11840
H 1.0000000 14.42740 -0.04050 1.57310
H 1.0000000 12.76490 -2.41110 0.33680
H 1.0000000 12.99230 -2.18330 2.08740
H 1.0000000 11.34980 -2.26850 1.40700
H 1.0000000 10.90700 -0.07060 2.57370
H 1.0000000 12.59470 0.00870 3.13370
H 1.0000000 11.90780 1.34910 2.18520
H 1.0000000 12.79490 2.64470 -1.32470
H 1.0000000 13.63090 1.17230 -1.86580
H 1.0000000 9.97070 1.86810 -1.70930
H 1.0000000 11.15350 1.47070 -2.97860
H 1.0000000 10.12400 0.19240 -2.28980
H 1.0000000 13.19050 2.10510 1.00180
H 1.0000000 14.74320 1.91320 0.14590
 $END
