 $BASIS GBASIS=N31 NGAUSS=6 NDFUNC=1 NPFUNC=1 $END
 $CONTRL SCFTYP=RHF RUNTYP=OPTIMIZE DFTTYP=B3LYP MAXIT=60 MULT=1 ICHARG=0 $END 
 $SYSTEM MEMDDI=1000 MWORDS=30 $END
 $STATPT NSTEP=999 $END
 $SCF DIRSCF=.TRUE. $END
 $DATA

C1
C 6.0000000 0.65620 -0.79300 -0.09970
C 6.0000000 -0.82360 -0.58190 0.30270
C 6.0000000 1.30030 0.56190 -0.34510
C 6.0000000 -1.53380 0.18870 -0.79940
C 6.0000000 2.81710 0.53250 -0.54390
C 6.0000000 -3.04780 0.25640 -0.68250
C 6.0000000 3.43250 -0.22010 0.62970
C 6.0000000 -3.58940 -1.17320 -0.54470
C 6.0000000 -3.59140 1.16200 0.40500
C 6.0000000 -5.13070 1.10070 0.45100
C 6.0000000 0.68290 -1.66770 -1.36200
C 6.0000000 -0.85270 0.20390 1.62190
C 6.0000000 3.19300 -0.04760 -1.89930
C 6.0000000 -3.21250 -1.99390 -1.78630
C 6.0000000 -3.25750 2.63730 0.14170
C 6.0000000 5.33840 -0.61810 2.16300
C 6.0000000 5.64710 -1.08210 -0.24690
C 6.0000000 -5.63280 2.02300 1.56300
C 6.0000000 1.38390 -1.55730 1.00640
C 6.0000000 0.59330 1.29700 -1.48150
C 6.0000000 -1.47030 -1.94090 0.55800
C 6.0000000 -0.86550 1.53880 -1.04420
C 6.0000000 2.88510 -1.64460 0.68300
C 6.0000000 -2.98570 -1.81920 0.70070
C 6.0000000 3.32540 1.98660 -0.49570
C 6.0000000 -5.11480 -1.19530 -0.44360
C 6.0000000 5.46590 1.27100 0.58920
C 6.0000000 4.84810 1.99760 -0.59700
C 6.0000000 -5.57120 -0.33380 0.73300
C 6.0000000 4.93800 -0.15530 0.73970
H 1.0000000 1.15230 1.18750 0.56410
H 1.0000000 -1.34670 -0.36160 -1.75940
H 1.0000000 -3.43200 0.64080 -1.65290
H 1.0000000 3.03320 0.28490 1.54840
H 1.0000000 1.27800 -1.06320 1.96800
H 1.0000000 0.98280 -2.57060 1.07160
H 1.0000000 1.06470 2.26850 -1.64200
H 1.0000000 0.60090 0.73060 -2.40250
H 1.0000000 -1.23340 -2.67050 -0.20480
H 1.0000000 -1.07430 -2.33030 1.51210
H 1.0000000 -1.38070 2.07010 -1.84300
H 1.0000000 -0.83230 2.14050 -0.14130
H 1.0000000 3.03910 -2.16720 -0.25140
H 1.0000000 3.36780 -2.20660 1.48630
H 1.0000000 -3.23010 -1.22570 1.58070
H 1.0000000 -3.41390 -2.81900 0.82780
H 1.0000000 -3.23020 0.87880 1.38910
H 1.0000000 2.89920 2.53930 -1.33120
H 1.0000000 3.01270 2.43860 0.44390
H 1.0000000 0.27360 -1.10630 -2.20180
H 1.0000000 1.71080 -1.95500 -1.58340
H 1.0000000 0.08310 -2.56270 -1.19650
H 1.0000000 -0.48040 1.21400 1.45130
H 1.0000000 -1.87610 0.25180 1.99380
H 1.0000000 -0.22210 -0.29650 2.35680
H 1.0000000 -5.54440 -0.80590 -1.36740
H 1.0000000 -5.45450 -2.22150 -0.29690
H 1.0000000 2.56030 0.39160 -2.67070
H 1.0000000 4.23750 0.17820 -2.11410
H 1.0000000 3.05050 -1.12820 -1.88430
H 1.0000000 -5.52710 1.43000 -0.50720
H 1.0000000 6.55350 1.23390 0.46330
H 1.0000000 5.25110 1.82740 1.50700
H 1.0000000 5.18480 1.56170 -1.53240
H 1.0000000 5.18730 3.04490 -0.58170
H 1.0000000 -5.11500 -0.68890 1.65370
H 1.0000000 -6.65630 -0.37560 0.81920
H 1.0000000 -2.12740 -2.02740 -1.88400
H 1.0000000 -3.59950 -3.00760 -1.68300
H 1.0000000 -3.64310 -1.52920 -2.67330
H 1.0000000 -3.57400 2.90730 -0.86580
H 1.0000000 -3.77910 3.26280 0.86620
H 1.0000000 -2.18250 2.78930 0.23780
H 1.0000000 4.99430 -1.63980 2.32310
H 1.0000000 6.42290 -0.57960 2.26590
H 1.0000000 4.87980 0.03970 2.90140
H 1.0000000 5.46870 -0.73450 -1.26440
H 1.0000000 6.71810 -1.07770 -0.04400
H 1.0000000 5.26050 -2.09520 -0.13590
H 1.0000000 -5.31160 3.04470 1.36050
H 1.0000000 -6.72150 1.98550 1.60230
H 1.0000000 -5.22330 1.69610 2.51880
 $END
