 $BASIS GBASIS=N21 NGAUSS=3 $END
 $CONTRL SCFTYP=RHF MAXIT=60 MULT=1 ICHARG=0 $END
 $SYSTEM MEMDDI=1000 MWORDS=30 $END
 $SCF DIRSCF=.TRUE. $END
 $DATA

C1
C 6.0000000 -2.2999181460 -1.3855721142 -0.3260568344
C 6.0000000 -3.2095753697 0.5126001860 0.2262646681
C 6.0000000 0.1849626381 -0.5442314778 -0.6325374890
H 1.0000000 -1.2614175928 1.5722196748 0.1627307846
H 1.0000000 1.0619274436 2.2216965644 1.1206934757
H 1.0000000 1.1695439943 2.1261008588 -0.5315354043
C 6.0000000 -1.2772891786 -0.4594617130 -0.3269748454
O 8.0000000 3.3126396159 0.9046027497 -0.3011638970
O 8.0000000 2.8402076836 -1.2756034490 0.2413055533
C 6.0000000 2.5158783425 0.0522619179 0.0752561962
H 1.0000000 3.8005707071 -1.4101288194 0.0044251835
C 6.0000000 1.0418262187 0.2762366106 0.3772587395
N 7.0000000 0.7055600991 1.7247007262 0.2951025007
N 7.0000000 -3.5094082447 -0.7708773362 0.0191693300
N 7.0000000 -1.8673705297 0.7509498605 0.0215382718
H 1.0000000 0.8231474560 -0.0862679238 1.3852472995
H 1.0000000 0.5208271522 -1.5833986449 -0.5975948045
H 1.0000000 0.3974680426 -0.1537609208 -1.6397855751
H 1.0000000 -2.2437032707 -2.4372750795 -0.5494824784
H 1.0000000 -3.9034370616 1.2813683295 0.5192493252
 $END
