 $BASIS GBASIS=N21 NGAUSS=3 $END
 $CONTRL SCFTYP=RHF RUNTYP=OPTIMIZE DFTTYP=B3LYP MAXIT=60 MULT=1 ICHARG=0 $END 
 $SYSTEM MEMDDI=1000 MWORDS=30 $END
 $STATPT NSTEP=999 $END
 $SCF DIRSCF=.TRUE. $END
 $DATA

C1
C 6.0000000 -2.26621 -1.37892 -0.28671
C 6.0000000 -3.25618 0.45141 0.22552
C 6.0000000 0.16564 -0.45198 -0.67722
H 1.0000000 -1.45922 1.64481 0.13150
H 1.0000000 1.19756 2.18489 1.13168
H 1.0000000 1.24758 2.14624 -0.49166
C 6.0000000 -1.28961 -0.40617 -0.32982
O 8.0000000 3.32976 0.75553 -0.43668
O 8.0000000 2.86554 -1.29104 0.39022
C 6.0000000 2.53744 -0.02129 0.05493
H 1.0000000 3.79961 -1.42727 0.15388
C 6.0000000 1.06801 0.29211 0.34538
N 7.0000000 0.78871 1.73033 0.31833
N 7.0000000 -3.48600 -0.83607 0.05754
N 7.0000000 -1.94714 0.76582 -0.00649
H 1.0000000 0.83507 -0.09105 1.34495
H 1.0000000 0.47324 -1.49989 -0.73900
H 1.0000000 0.34591 -0.00678 -1.66743
H 1.0000000 -2.15725 -2.43605 -0.48973
H 1.0000000 -3.99002 1.19153 0.51392
 $END
