 $BASIS GBASIS=N21 NGAUSS=3 $END
 $CONTRL SCFTYP=RHF RUNTYP=OPTIMIZE DFTTYP=B3LYP MAXIT=60 MULT=1 ICHARG=0 $END 
 $SYSTEM MEMDDI=1000 MWORDS=30 $END
 $STATPT NSTEP=999 $END
 $SCF DIRSCF=.TRUE. $END
 $DATA

C1
N 7.0000000 -0.14413 1.60037 0.41310
C 6.0000000 -0.45065 0.32597 -0.22308
H 1.0000000 -0.29849 0.41548 -1.30397
C 6.0000000 0.52730 -0.76216 0.27111
C 6.0000000 1.92831 -0.48956 -0.27736
N 7.0000000 2.94960 -0.56055 0.62669
O 8.0000000 2.11839 -0.28192 -1.46979
C 6.0000000 -1.89104 -0.12968 0.01596
O 8.0000000 -2.63771 0.33209 0.85482
O 8.0000000 -2.25689 -1.13988 -0.80880
H 1.0000000 -0.44662 2.37811 -0.16568
H 1.0000000 -0.64101 1.67964 1.29830
H 1.0000000 0.51465 -0.80071 1.36675
H 1.0000000 0.22145 -1.74454 -0.10587
H 1.0000000 2.77351 -0.53166 1.61899
H 1.0000000 3.87598 -0.31854 0.30246
H 1.0000000 -3.17092 -1.38542 -0.58328
 $END
