 $BASIS GBASIS=N21 NGAUSS=3 $END
 $CONTRL SCFTYP=UHF MAXIT=60 MULT=2 ICHARG=1 $END
 $SYSTEM MEMDDI=1000 MWORDS=30 $END
 $SCF DIRSCF=.TRUE. $END
 $STATPT OPTTOL=0.0001 NSTEP=999 $END
 $DATA

C1
O 8.0000000 -1.3953435025 -1.0038225532 -0.4257324581
O 8.0000000 0.7006152756 2.4485278479 0.7556993405
O 8.0000000 -1.3884180315 2.0422366809 -0.8049707412
O 8.0000000 0.0287725717 -1.5233557931 1.4329589981
O 8.0000000 -4.0122510124 -1.3435943310 -0.4917383354
O 8.0000000 2.6279283527 -1.9110937691 -0.6722890904
N 7.0000000 2.1069880298 0.1667609319 0.1699681651
C 6.0000000 0.0222982507 1.1617462187 0.8490677956
C 6.0000000 0.6755731631 0.1613323802 -0.1240812298
C 6.0000000 -1.4561173056 1.3237351027 0.4845543510
C 6.0000000 -2.1588043661 -0.0334246213 0.3861289298
C 6.0000000 -0.0230219628 -1.1900823378 0.0376672978
C 6.0000000 -3.5068612705 0.0081464133 -0.3372719095
C 6.0000000 2.9762840051 -0.8381173616 -0.1411684532
C 6.0000000 4.4293846039 -0.5198191420 0.2181583324
H 1.0000000 0.1408377700 0.7851902752 1.8638155732
H 1.0000000 0.4697415684 0.4952719972 -1.1478132161
H 1.0000000 -1.9593076709 1.9378054322 1.2440912350
H 1.0000000 -2.2750458470 -0.4321391539 1.3985140277
H 1.0000000 0.4251539133 -1.9448590602 -0.6032554420
H 1.0000000 -3.3420582830 0.5066353770 -1.3040538524
H 1.0000000 -4.2425592182 0.5695891232 0.2463511706
H 1.0000000 2.4284982714 1.0655486973 0.5268237956
H 1.0000000 0.2991784502 2.8429465612 -0.0751111904
H 1.0000000 -2.2572403953 2.4899160404 -0.9762612009
H 1.0000000 -0.2539499037 -2.4698444384 1.5446591625
H 1.0000000 -3.2064522475 -1.8488465556 -0.8008422670
H 1.0000000 4.8009746507 0.3049558761 -0.4018535111
H 1.0000000 4.5145836955 -0.2273895098 1.2702793114
H 1.0000000 5.0323185447 -1.4089566285 0.0318054115
 $END
