 $BASIS GBASIS=N21 NGAUSS=3 $END
 $CONTRL SCFTYP=RHF DFTTYP=B3LYP MAXIT=60 MULT=1 ICHARG=0 $END
 $SYSTEM MEMDDI=1000 MWORDS=30 $END
 $SCF DIRSCF=.TRUE. $END
 $ELPOT  IEPOT=1 WHERE=PDC $END
 $PDC PTSEL=CHELPG CONSTR=CHARGE $END
 $DATA

C1
O 8.0000000 -3.6322681587 -1.1505051891 0.9673452413
C 6.0000000 -2.5606205824 -0.5753323311 1.1969610883
C 6.0000000 -1.9840375526 0.3934634534 0.1984511696
H 1.0000000 -1.7523240240 1.3688200625 0.6425220326
O 8.0000000 -2.9343119424 0.5535393095 -0.8955785371
C 6.0000000 -0.6517681826 -0.1458171848 -0.4069671079
H 1.0000000 -0.6244502984 -1.2378179781 -0.4826124181
O 8.0000000 -0.5329071399 0.5021898078 -1.7145181248
C 6.0000000 0.5477311751 0.3746825548 0.3904642593
H 1.0000000 0.4457942134 0.1423690647 1.4551790977
O 8.0000000 0.5778656115 1.8231249621 0.2284457007
C 6.0000000 1.8371653509 -0.2533384196 -0.1186285928
H 1.0000000 1.9071816237 -0.1016771506 -1.2040587646
O 8.0000000 1.7675741545 -1.6663877223 0.2288751433
C 6.0000000 3.0614839158 0.3559716081 0.5571669927
O 8.0000000 4.1487702701 -0.5444266731 0.1434271503
H 1.0000000 -1.9683689914 -0.7564342376 2.1048700386
H 1.0000000 -3.6359408739 -0.1474698987 -0.7218162812
H 1.0000000 -1.4975698240 0.6089085349 -1.9957530896
H 1.0000000 0.3002716602 1.9095032068 -0.7381730019
H 1.0000000 2.7247763948 -1.9557642142 0.1781731580
H 1.0000000 3.1991575586 1.3896449791 0.2280693742
H 1.0000000 2.9173918746 0.3336190105 1.6466972828
H 1.0000000 4.9629037670 -0.3284654549 0.6683579888
 $END
