 $BASIS GBASIS=N21 NGAUSS=3 $END
 $CONTRL SCFTYP=RHF RUNTYP=OPTIMIZE DFTTYP=B3LYP MAXIT=60 MULT=1 ICHARG=0 $END 
 $SYSTEM MEMDDI=1000 MWORDS=30 $END
 $STATPT NSTEP=999 $END
 $SCF DIRSCF=.TRUE. $END
 $DATA

C1
O 8.0000000 -4.08531240 -0.87292110 0.24832070
C 6.0000000 -2.94231490 -0.94134470 0.65457420
C 6.0000000 -1.96678920 0.21229310 0.48325230
H 1.0000000 -1.73438700 0.57887880 1.49766250
O 8.0000000 -2.56655690 1.23322720 -0.28744550
C 6.0000000 -0.64288440 -0.26544220 -0.18353240
H 1.0000000 -0.46991780 -1.31371790 0.08667630
O 8.0000000 -0.77278560 -0.19457100 -1.59860390
C 6.0000000 0.60616670 0.52286580 0.27279260
H 1.0000000 0.55529350 0.66960630 1.35929380
O 8.0000000 0.65333960 1.81767740 -0.30624550
C 6.0000000 1.89339450 -0.26495570 -0.02978810
H 1.0000000 1.95478190 -0.46051170 -1.11216580
O 8.0000000 1.80193290 -1.49996230 0.68241140
C 6.0000000 3.14459580 0.49538100 0.39760600
O 8.0000000 4.24432320 -0.39931270 0.16824820
H 1.0000000 -2.56577720 -1.83968260 1.18102590
H 1.0000000 -3.50866650 0.99613660 -0.37905940
H 1.0000000 -1.48029240 0.45201040 -1.77361820
H 1.0000000 0.44283610 1.71563570 -1.24764470
H 1.0000000 2.68178180 -1.90551940 0.65225690
H 1.0000000 3.25061790 1.41467120 -0.18851120
H 1.0000000 3.07353100 0.75291400 1.46444780
H 1.0000000 5.05658940 -0.01095610 0.51494590
 $END
