 $BASIS GBASIS=N31 NGAUSS=6 NDFUNC=1 NPFUNC=1 $END
 $CONTRL SCFTYP=RHF RUNTYP=OPTIMIZE DFTTYP=B3LYP MAXIT=60 MULT=1 ICHARG=0 $END 
 $SYSTEM MEMDDI=1000 MWORDS=30 $END
 $STATPT NSTEP=999 $END
 $SCF DIRSCF=.TRUE. $END
 $DATA

C1
C 6.0000000 1.45600 -1.69140 -0.00010
C 6.0000000 2.05300 1.03200 -0.00020
C 6.0000000 2.77420 -1.26130 0.00020
C 6.0000000 3.06850 0.08860 0.00040
H 1.0000000 -0.83830 3.50600 -0.00010
O 8.0000000 -1.28450 -2.36080 0.00020
O 8.0000000 -3.22260 -0.43550 0.00000
O 8.0000000 -0.06540 2.92480 0.00000
C 6.0000000 -0.98830 -1.18440 -0.00010
C 6.0000000 -0.36790 1.60840 -0.00020
C 6.0000000 -2.04610 -0.12530 0.00030
C 6.0000000 0.42700 -0.75770 -0.00020
C 6.0000000 0.72390 0.61950 0.00000
C 6.0000000 -1.67310 1.22720 0.00000
H 1.0000000 1.23000 -2.74750 -0.00470
H 1.0000000 2.29280 2.08510 -0.00010
H 1.0000000 -2.44250 1.98510 0.00060
H 1.0000000 3.57530 -1.98560 0.00060
H 1.0000000 4.09910 0.41160 0.00060
 $END
