 $BASIS GBASIS=N31 NGAUSS=6 NDFUNC=1 NPFUNC=1 $END
 $CONTRL SCFTYP=RHF RUNTYP=OPTIMIZE DFTTYP=B3LYP MAXIT=60 MULT=1 ICHARG=0 $END 
 $SYSTEM MEMDDI=1000 MWORDS=30 $END
 $STATPT NSTEP=999 $END
 $SCF DIRSCF=.TRUE. $END
 $DATA

C1
C 6.0000000 0.20690 -1.76980 0.13120
C 6.0000000 3.24480 0.16920 -0.17680
C 6.0000000 3.72360 -1.07170 -0.02520
C 6.0000000 1.12880 3.07980 0.76960
C 6.0000000 0.73150 0.96330 -0.23240
O 8.0000000 -4.29170 -0.90710 0.10470
O 8.0000000 0.98430 2.28420 -0.40860
C 6.0000000 -3.15890 -0.46660 0.02650
C 6.0000000 -0.58720 0.49900 -0.14760
C 6.0000000 -0.84380 -0.87680 0.03530
O 8.0000000 -2.12140 -1.31330 0.11610
C 6.0000000 -1.71530 1.42540 -0.24580
C 6.0000000 -2.97310 0.91800 -0.15620
C 6.0000000 1.78100 0.05080 -0.13400
C 6.0000000 1.51900 -1.31950 0.04820
O 8.0000000 2.71110 -1.94770 0.10720
H 1.0000000 -1.55300 2.48400 -0.38550
H 1.0000000 0.00740 -2.82140 0.27560
H 1.0000000 -3.82780 1.57460 -0.22470
H 1.0000000 3.81890 1.07490 -0.30510
H 1.0000000 0.21020 3.03290 1.35460
H 1.0000000 1.95870 2.69970 1.36530
H 1.0000000 1.32760 4.11380 0.48770
H 1.0000000 4.77160 -1.33220 -0.01140
 $END
