 $BASIS GBASIS=N21 NGAUSS=3 $END
 $CONTRL SCFTYP=RHF RUNTYP=OPTIMIZE DFTTYP=B3LYP MAXIT=60 MULT=1 ICHARG=0 $END 
 $SYSTEM MEMDDI=1000 MWORDS=30 $END
 $STATPT NSTEP=999 $END
 $SCF DIRSCF=.TRUE. $END
 $DATA

C1
O 8.0000000 -13.19107140 3.83725570 -1.28624790
H 1.0000000 -12.61905810 3.04874710 -1.32846480
H 1.0000000 -13.37107370 3.97818390 -0.32563660
O 8.0000000 -9.41134280 5.12613610 1.19079750
H 1.0000000 -9.95705730 4.35978560 1.49363510
H 1.0000000 -10.00696110 5.89910520 1.22220880
O 8.0000000 -11.79596470 5.96160910 -1.91763640
H 1.0000000 -12.16141290 6.43849450 -2.67343710
H 1.0000000 -12.38029760 5.15050060 -1.76379700
O 8.0000000 -9.38466250 4.47437710 -1.51245890
H 1.0000000 -9.31721400 4.79027750 -0.57942600
H 1.0000000 -10.03641080 5.07100090 -1.92875570
O 8.0000000 -11.63408510 6.83179980 0.70088720
H 1.0000000 -11.72035540 6.69670300 -0.27353040
H 1.0000000 -11.84710360 7.75495580 0.88492820
O 8.0000000 -10.86394150 2.18179130 -0.96548260
H 1.0000000 -10.30751240 1.38617890 -1.05513660
H 1.0000000 -10.30161150 2.93359200 -1.26862580
O 8.0000000 -10.88890010 2.85402780 1.73665240
H 1.0000000 -10.94665840 2.50892070 0.81386330
H 1.0000000 -10.30048490 2.23374810 2.20661110
O 8.0000000 -13.24297750 4.45965630 1.41680340
H 1.0000000 -12.59148210 3.85616850 1.81926340
H 1.0000000 -12.80836970 5.33073730 1.39048860
H 1.0000000 -7.63922350 3.49402910 -1.64194630
O 8.0000000 -4.75320830 1.25223930 -0.64726900
H 1.0000000 -5.79442710 -1.68813410 -0.53527050
H 1.0000000 -5.32920880 1.91354300 -1.07341460
O 8.0000000 -7.08144720 2.85151090 -1.16602340
H 1.0000000 -5.56617970 -0.11942880 -0.38933770
O 8.0000000 -6.14962400 -0.89728750 -0.11052200
H 1.0000000 -4.56135430 1.61416920 0.25131770
H 1.0000000 -7.64507560 2.05088150 -1.04431770
O 8.0000000 -8.49736570 1.39115760 2.19075470
H 1.0000000 -7.90901180 -0.12636630 -0.54112760
O 8.0000000 -8.55924600 0.59923400 -0.47121820
H 1.0000000 -7.90195350 0.73745330 2.60420020
O 8.0000000 -6.26668840 -0.33440830 2.59509890
H 1.0000000 -6.19729390 -0.70957090 1.68444750
H 1.0000000 -6.97984390 3.46277820 0.53437400
O 8.0000000 -4.66332910 2.07346590 1.99903830
O 8.0000000 -7.02373310 3.62726530 1.50653610
H 1.0000000 -7.94961930 2.20403840 2.06332280
H 1.0000000 -5.31040140 2.80062420 2.05495340
H 1.0000000 -7.60873740 4.40130310 1.60938660
H 1.0000000 -8.61205020 0.79463290 0.49534630
H 1.0000000 -6.03232910 -1.03581870 3.21526330
H 1.0000000 -5.09685960 1.30776560 2.41652430
 $END
