 $BASIS GBASIS=N21 NGAUSS=3 $END
 $CONTRL SCFTYP=RHF DFTTYP=B3LYP MAXIT=60 MULT=1 ICHARG=0 $END
 $SYSTEM MEMDDI=1000 MWORDS=30 $END
 $SCF DIRSCF=.TRUE. $END
 $ELPOT  IEPOT=1 WHERE=PDC $END
 $PDC PTSEL=CHELPG CONSTR=CHARGE $END
 $DATA

C1
O 8.0000000 -12.7695180518 3.6536855721 -1.1082344879
H 1.0000000 -12.0840465305 2.8772459863 -1.1505645677
H 1.0000000 -12.9153466336 3.9239445476 0.0742703567
O 8.0000000 -9.3053993861 4.9376825381 1.1259829044
H 1.0000000 -9.8763694709 4.0906532662 1.4367718334
H 1.0000000 -9.9976799604 5.7242920044 1.0869649149
O 8.0000000 -11.3634683068 5.6897422850 -1.6894569062
H 1.0000000 -11.6068127001 6.3444860186 -2.3912050651
H 1.0000000 -12.2884732102 4.5036274125 -1.5105762992
O 8.0000000 -9.2947008367 4.3159570070 -1.3336221515
H 1.0000000 -9.2018612529 4.6264011968 -0.3109267443
H 1.0000000 -10.0268892309 4.9594752126 -1.7301337322
O 8.0000000 -11.3318138816 6.3508126417 0.6588455381
H 1.0000000 -11.3663984978 6.1513024105 -0.5398241929
H 1.0000000 -11.5793903373 7.2735438985 0.9189037319
O 8.0000000 -10.6679233542 2.2641521484 -0.8302729942
H 1.0000000 -10.0535703803 1.4351031429 -0.8770775848
H 1.0000000 -10.0631452426 3.1078865835 -1.1350127326
O 8.0000000 -10.6911305388 2.8668377001 1.6281411887
H 1.0000000 -10.7439948650 2.5388187194 0.6082898420
H 1.0000000 -10.0472114587 2.2101236164 2.1005195250
O 8.0000000 -12.7476128564 4.3030179010 1.2446318531
H 1.0000000 -12.0646325594 3.6499940996 1.6675616104
H 1.0000000 -12.2630333475 5.2295064278 1.1461818012
H 1.0000000 -7.8943494310 3.5417200302 -1.4613576769
O 8.0000000 -5.1714414397 1.5031624946 -0.5799688759
H 1.0000000 -6.3368686988 -1.4650256470 -0.3242419863
H 1.0000000 -5.8609190249 2.1547140347 -0.9982503851
O 8.0000000 -7.2758952171 2.8464518049 -1.0127382564
H 1.0000000 -5.6535479205 0.5669119581 -0.4962598479
O 8.0000000 -6.5766855106 -0.5461912463 -0.0438527767
H 1.0000000 -5.0098822526 1.8618554332 0.5756798999
H 1.0000000 -7.8813200636 1.9659779238 -0.8434539177
O 8.0000000 -8.6033607108 1.5254158168 2.0407764374
H 1.0000000 -7.9180141398 0.0667765422 -0.4270295062
O 8.0000000 -8.6475054537 0.8247310054 -0.3974271908
H 1.0000000 -7.9092029162 0.8234451841 2.3939403305
O 8.0000000 -6.5781053476 0.0615099305 2.3190755710
H 1.0000000 -6.5582607329 -0.3676899741 1.1822419833
H 1.0000000 -7.1802431123 3.3331093463 0.3674657476
O 8.0000000 -5.1617628879 2.1221854605 1.7812417724
O 8.0000000 -7.2185241909 3.5623758193 1.4145574246
H 1.0000000 -8.0309906343 2.4112252292 1.8747700600
H 1.0000000 -5.8419297182 2.9013388802 1.8264581985
H 1.0000000 -7.8581504119 4.3698717825 1.5019677817
H 1.0000000 -8.7259777935 1.0706278318 0.6436594425
H 1.0000000 -6.3255656760 -0.6070781149 3.0043624459
H 1.0000000 -5.6452938247 1.2731158368 2.1658459833
 $END
