 $BASIS GBASIS=N21 NGAUSS=3 $END
 $CONTRL SCFTYP=RHF RUNTYP=OPTIMIZE DFTTYP=B3LYP MAXIT=60 MULT=1 ICHARG=0 $END 
 $SYSTEM MEMDDI=1000 MWORDS=30 $END
 $STATPT NSTEP=999 $END
 $SCF DIRSCF=.TRUE. $END
 $DATA

C1
C 6.0000000 0.28814 0.14332 -0.43962
H 1.0000000 0.36262 -0.22865 -1.46594
C 6.0000000 1.23256 -0.62160 0.47300
O 8.0000000 2.56014 -0.41670 -0.00134
H 1.0000000 1.12108 -0.26356 1.51003
H 1.0000000 0.96984 -1.69235 0.47024
H 1.0000000 3.16124 -0.90427 0.57607
H 1.0000000 -0.74781 0.03309 -0.10260
H 1.0000000 0.54207 1.20769 -0.44279
 $END
