 $BASIS GBASIS=N21 NGAUSS=3 $END
 $CONTRL SCFTYP=RHF DFTTYP=B3LYP MAXIT=60 MULT=1 ICHARG=0 $END
 $SYSTEM MEMDDI=1000 MWORDS=30 $END
 $SCF DIRSCF=.TRUE. $END
 $ELPOT  IEPOT=1 WHERE=PDC $END
 $PDC PTSEL=GEODESIC CONSTR=CHARGE $END
 $DATA

C1
C 6.0000000 0.2805690038 0.1438665882 -0.4388404043
H 1.0000000 0.3825655519 -0.2345775192 -1.4601278082
C 6.0000000 1.2157968055 -0.6319726227 0.4894628367
O 8.0000000 2.5648039133 -0.4036035406 -0.0281432026
H 1.0000000 1.1018531151 -0.2654062752 1.5220733357
H 1.0000000 0.9455256931 -1.6998167023 0.4812035085
H 1.0000000 3.2009217625 -0.8942086388 0.5599140712
H 1.0000000 -0.7606856703 0.0408134079 -0.1161437476
H 1.0000000 0.5585298251 1.2018753027 -0.4323485893
 $END
