 $BASIS GBASIS=N21 NGAUSS=3 $END
 $CONTRL SCFTYP=RHF RUNTYP=OPTIMIZE DFTTYP=B3LYP MAXIT=60 MULT=1 ICHARG=0 $END 
 $SYSTEM MEMDDI=1000 MWORDS=30 $END
 $STATPT NSTEP=999 $END
 $SCF DIRSCF=.TRUE. $END
 $DATA

C1
C 6.0000000 -0.04938 0.32206 0.65376
H 1.0000000 -0.03973 0.30684 1.74920
C 6.0000000 -1.09329 -0.64471 0.09033
H 1.0000000 -0.84966 -1.66102 0.42441
O 8.0000000 -1.01081 -0.71843 -1.33548
C 6.0000000 -2.51490 -0.30452 0.54310
H 1.0000000 -1.20901 0.16423 -1.67948
H 1.0000000 -2.79207 0.70750 0.21932
H 1.0000000 -3.23111 -1.00888 0.11043
H 1.0000000 -2.60623 -0.33953 1.63429
H 1.0000000 0.94874 0.05729 0.29335
H 1.0000000 -0.26527 1.35166 0.33857
 $END
