 $BASIS GBASIS=N21 NGAUSS=3 $END
 $CONTRL SCFTYP=RHF DFTTYP=B3LYP MAXIT=60 MULT=1 ICHARG=0 $END
 $SYSTEM MEMDDI=1000 MWORDS=30 $END
 $SCF DIRSCF=.TRUE. $END
 $ELPOT  IEPOT=1 WHERE=PDC $END
 $PDC PTSEL=GEODESIC CONSTR=CHARGE $END
 $DATA

C1
C 6.0000000 -0.0493886499 0.3276963324 0.6607923992
H 1.0000000 -0.0347754127 0.3074192612 1.7561164305
C 6.0000000 -1.0903855297 -0.6572183748 0.1044941610
H 1.0000000 -0.8469936960 -1.6709393881 0.4376334572
O 8.0000000 -1.0054437370 -0.7407776231 -1.3577567878
C 6.0000000 -2.5174161446 -0.3004528823 0.5512180146
H 1.0000000 -1.2110889659 0.1721756522 -1.7029872178
H 1.0000000 -2.7682617497 0.7203420756 0.2321792349
H 1.0000000 -3.2309440859 -0.9930711360 0.0948056429
H 1.0000000 -2.6127839290 -0.3508679678 1.6413817920
H 1.0000000 0.9443358925 0.0677859222 0.2837637464
H 1.0000000 -0.2895739922 1.3503981286 0.3401591268
 $END
