 $BASIS GBASIS=N31 NGAUSS=6 NDFUNC=1 NPFUNC=1 $END
 $CONTRL SCFTYP=RHF RUNTYP=OPTIMIZE DFTTYP=B3LYP MAXIT=60 MULT=1 ICHARG=0 $END 
 $SYSTEM MEMDDI=1000 MWORDS=30 $END
 $STATPT NSTEP=999 $END
 $SCF DIRSCF=.TRUE. $END
 $DATA

C1
C 6.0000000 0.93080 1.70980 0.13440
C 6.0000000 -0.58440 1.78160 0.34180
C 6.0000000 1.59950 2.84460 0.91630
C 6.0000000 -2.63030 0.66640 -0.22030
C 6.0000000 -3.86810 -1.51330 -0.54080
C 6.0000000 1.01250 4.18240 0.45560
C 6.0000000 -0.50580 4.15860 0.65060
C 6.0000000 -3.21470 -0.31470 -1.22620
C 6.0000000 1.53110 -4.09930 1.04830
C 6.0000000 3.77250 -3.47340 0.42100
C 6.0000000 5.45180 -0.93720 0.16870
C 6.0000000 3.99400 -0.57240 -1.71800
C 6.0000000 4.88310 0.35570 -2.22190
C 6.0000000 6.05130 0.64060 -1.54020
C 6.0000000 -1.10670 5.46860 0.13700
H 1.0000000 3.49490 3.52380 1.13460
H 1.0000000 -0.78040 -2.78400 -0.00590
H 1.0000000 1.24550 6.12070 0.99400
H 1.0000000 3.31620 -6.29220 0.61200
H 1.0000000 8.23600 -0.27880 0.07040
H 1.0000000 -2.95360 6.29930 0.12600
C 6.0000000 1.95310 -1.90390 0.14250
C 6.0000000 3.32130 -2.22230 0.02520
C 6.0000000 1.06220 -2.85640 0.65870
C 6.0000000 4.27370 -1.22510 -0.51810
C 6.0000000 2.87940 -4.40740 0.93060
C 6.0000000 6.33760 -0.00480 -0.34470
O 8.0000000 1.09190 -0.40360 -1.41640
O 8.0000000 -6.64260 -1.06540 1.78580
C 6.0000000 -5.68720 -3.19960 -0.77880
C 6.0000000 -4.77750 -2.23190 -1.54410
O 8.0000000 3.00710 2.83010 0.66990
O 8.0000000 -0.25640 -2.56040 0.77550
O 8.0000000 1.57670 5.24310 1.22920
O 8.0000000 3.32800 -5.62900 1.31570
O 8.0000000 7.48730 0.27910 0.32220
O 8.0000000 -2.50630 5.49550 0.42430
C 6.0000000 1.46350 -0.58230 -0.27280
O 8.0000000 1.42620 0.43220 0.61440
O 8.0000000 -1.21980 0.76010 -0.42950
C 6.0000000 -6.00520 -1.50680 0.84820
C 6.0000000 -4.24850 0.39640 -2.06090
O 8.0000000 -1.06110 3.06170 -0.07780
O 8.0000000 -2.87610 0.25960 1.14600
O 8.0000000 -6.56700 -2.43910 0.05390
C 6.0000000 -4.14160 -0.11940 1.45120
C 6.0000000 -4.70180 -1.03030 0.62140
C 6.0000000 -4.07570 0.51810 -3.35380
H 1.0000000 -3.09690 -2.19400 -0.18020
H 1.0000000 1.15860 1.81470 -0.92630
H 1.0000000 -0.81410 1.63600 1.39730
H 1.0000000 1.41460 2.71150 1.98220
H 1.0000000 -3.07770 1.64690 -0.38340
H 1.0000000 -4.66990 0.28060 2.30390
H 1.0000000 1.24200 4.33830 -0.59840
H 1.0000000 -0.73450 4.04430 1.71020
H 1.0000000 -2.41760 -0.67050 -1.87890
H 1.0000000 0.84560 -4.83080 1.44990
H 1.0000000 4.81990 -3.72140 0.33280
H 1.0000000 -5.13180 0.80570 -1.59330
H 1.0000000 5.67120 -1.43670 1.10070
H 1.0000000 -4.81650 1.02770 -3.95200
H 1.0000000 -3.19240 0.10880 -3.82140
H 1.0000000 -6.27110 -3.78910 -1.48570
H 1.0000000 -5.07990 -3.86130 -0.16110
H 1.0000000 -5.38650 -1.50010 -2.07480
H 1.0000000 -4.16820 -2.78880 -2.25600
H 1.0000000 -0.61860 6.30980 0.62910
H 1.0000000 -0.95540 5.54010 -0.94010
H 1.0000000 3.08200 -0.79250 -2.25290
H 1.0000000 4.66550 0.86030 -3.15170
H 1.0000000 6.74360 1.36750 -1.93880
 $END
