 $BASIS GBASIS=N21 NGAUSS=3 $END
 $CONTRL SCFTYP=RHF DFTTYP=B3LYP MAXIT=60 MULT=1 ICHARG=0 $END
 $SYSTEM MEMDDI=1000 MWORDS=30 $END
 $SCF DIRSCF=.TRUE. $END
 $ELPOT  IEPOT=1 WHERE=PDC $END
 $PDC PTSEL=GEODESIC CONSTR=CHARGE $END
 $DATA

C1
O 8.0000000 -2.38748 1.32351 0.55636
C 6.0000000 -0.72030 -0.26732 -0.27159
C 6.0000000 0.85272 -0.18680 -0.36597
C 6.0000000 0.98850 0.50143 1.03046
C 6.0000000 -1.08283 1.22367 -0.02965
C 6.0000000 -0.92205 -0.99925 1.08758
C 6.0000000 0.07450 1.74162 0.88182
C 6.0000000 0.25975 -0.48850 1.97069
C 6.0000000 -1.47220 -0.89782 -1.43798
C 6.0000000 1.39878 0.65916 -1.53508
C 6.0000000 1.54560 -1.56030 -0.46173
H 1.0000000 2.01367 0.73720 1.33761
H 1.0000000 -1.09873 1.75736 -0.98969
H 1.0000000 -1.89915 -0.76564 1.51570
H 1.0000000 -0.88168 -2.08401 0.94346
H 1.0000000 -0.31761 2.07695 1.84845
H 1.0000000 0.59717 2.59015 0.42734
H 1.0000000 -0.08488 0.00675 2.88477
H 1.0000000 0.91808 -1.30684 2.27933
H 1.0000000 -2.55254 -0.86559 -1.25883
H 1.0000000 -1.18737 -1.94729 -1.57516
H 1.0000000 -1.27515 -0.36812 -2.37812
H 1.0000000 2.48976 0.74172 -1.45696
H 1.0000000 1.17897 0.17974 -2.49616
H 1.0000000 1.00084 1.67534 -1.57829
H 1.0000000 1.36141 -2.01506 -1.44206
H 1.0000000 2.63112 -1.44065 -0.35858
H 1.0000000 1.21982 -2.27420 0.29703
H 1.0000000 -2.64849 2.25269 0.57535
 $END
