 $BASIS GBASIS=N31 NGAUSS=6 NDFUNC=1 NPFUNC=1 $END
 $CONTRL SCFTYP=RHF RUNTYP=OPTIMIZE DFTTYP=B3LYP MAXIT=60 MULT=1 ICHARG=0 $END 
 $SYSTEM MEMDDI=1000 MWORDS=30 $END
 $STATPT NSTEP=999 $END
 $SCF DIRSCF=.TRUE. $END
 $DATA

C1
O 8.0000000 -0.99210 -1.06270 0.00040
C 6.0000000 -2.04360 -0.22900 0.00000
O 8.0000000 -3.16920 -0.69370 0.00010
C 6.0000000 -1.87830 1.17310 -0.00010
C 6.0000000 -0.62990 1.70510 -0.00020
C 6.0000000 0.51360 0.78750 -0.00030
C 6.0000000 1.82550 1.27020 0.00000
C 6.0000000 2.87150 0.39010 0.00040
C 6.0000000 2.64060 -0.97770 0.00010
C 6.0000000 1.35340 -1.47410 -0.00070
C 6.0000000 0.27560 -0.59830 0.00030
H 1.0000000 -2.74280 1.82040 -0.00030
H 1.0000000 -0.48270 2.77500 -0.00060
H 1.0000000 2.01190 2.33400 -0.00040
H 1.0000000 3.88520 0.76250 0.00070
H 1.0000000 3.47700 -1.66090 0.00000
H 1.0000000 1.18440 -2.54080 -0.00170
 $END
