 $BASIS GBASIS=N31 NGAUSS=6 NDFUNC=1 NPFUNC=1 $END
 $CONTRL SCFTYP=RHF RUNTYP=OPTIMIZE DFTTYP=B3LYP MAXIT=60 MULT=1 ICHARG=0 $END 
 $SYSTEM MEMDDI=1000 MWORDS=30 $END
 $STATPT NSTEP=999 $END
 $SCF DIRSCF=.TRUE. $END
 $DATA

C1
C 6.0000000 3.91130 -0.31310 0.56460
C 6.0000000 5.34830 -0.75690 0.85100
C 6.0000000 6.27150 0.46430 0.79900
C 6.0000000 6.13300 1.13740 -0.56990
C 6.0000000 4.66570 1.50810 -0.80150
C 6.0000000 -4.88810 1.72570 1.47590
C 6.0000000 -7.05320 1.32380 0.49000
C 6.0000000 -0.52710 -2.06240 0.26400
C 6.0000000 -0.09790 0.31570 0.15570
C 6.0000000 1.25260 0.07590 0.29540
C 6.0000000 4.50910 2.12670 -2.19200
H 1.0000000 -3.10980 -2.64800 -2.27670
H 1.0000000 4.85000 -2.12870 2.25500
H 1.0000000 7.78390 -0.39240 1.83830
H 1.0000000 -7.70930 -1.13570 -0.81910
H 1.0000000 7.87850 2.15880 -0.46430
H 1.0000000 1.50430 -3.99100 -0.31730
H 1.0000000 -6.76240 3.86210 1.77950
H 1.0000000 2.99220 2.98310 -3.22490
C 6.0000000 -6.51740 0.33810 -0.31730
C 6.0000000 -0.99890 -0.75220 0.13900
C 6.0000000 1.72050 -1.22450 0.41890
C 6.0000000 0.82750 -2.29480 0.40320
C 6.0000000 -6.24060 2.01360 1.38380
O 8.0000000 -5.20420 -1.63860 -1.87180
O 8.0000000 -2.52420 -2.18180 -1.66450
O 8.0000000 5.41480 -1.35100 2.14900
O 8.0000000 7.62500 0.04880 0.99270
O 8.0000000 -7.30890 -0.33690 -1.18890
O 8.0000000 6.93520 2.31950 -0.60420
O 8.0000000 1.28980 -3.56790 0.52540
O 8.0000000 -6.77760 2.97890 2.17300
O 8.0000000 3.16430 2.57860 -2.36360
O 8.0000000 3.05260 -1.45520 0.55600
C 6.0000000 -3.14890 -1.23260 -0.91560
C 6.0000000 -2.44370 -0.49800 -0.01030
C 6.0000000 -4.54010 -1.00030 -1.07080
C 6.0000000 -5.15080 0.04120 -0.22930
C 6.0000000 -4.33160 0.74080 0.67380
O 8.0000000 -3.01630 0.44950 0.75180
O 8.0000000 3.85860 0.33240 -0.70920
H 1.0000000 3.58440 0.38170 1.33820
H 1.0000000 5.66170 -1.48280 0.10070
H 1.0000000 5.99030 1.16760 1.58280
H 1.0000000 6.46260 0.45070 -1.34960
H 1.0000000 4.34880 2.22680 -0.04580
H 1.0000000 -4.26620 2.27190 2.16970
H 1.0000000 -8.10560 1.55800 0.42770
H 1.0000000 -1.22040 -2.89040 0.25600
H 1.0000000 -0.45940 1.32890 0.05970
H 1.0000000 1.94800 0.90210 0.30850
H 1.0000000 5.19160 2.97060 -2.29320
H 1.0000000 4.74070 1.37900 -2.95050
 $END
