 $BASIS GBASIS=N21 NGAUSS=3 $END
 $CONTRL SCFTYP=RHF RUNTYP=OPTIMIZE DFTTYP=B3LYP MAXIT=60 MULT=1 ICHARG=0 $END 
 $SYSTEM MEMDDI=1000 MWORDS=30 $END
 $STATPT NSTEP=999 $END
 $SCF DIRSCF=.TRUE. $END
 $DATA

C1
H 1.0000000 -2.81053 0.04938 1.07361
H 1.0000000 -2.67181 1.35100 -0.11768
H 1.0000000 -0.22493 0.26134 1.52736
C 6.0000000 -2.59054 0.26706 0.02080
H 1.0000000 -0.14545 1.55204 0.31917
C 6.0000000 -0.10426 0.46553 0.45599
H 1.0000000 -3.37007 -0.20773 -0.58563
C 6.0000000 -1.19376 -0.24303 -0.36130
H 1.0000000 -1.25980 -2.06159 0.84086
H 1.0000000 0.89693 0.12881 0.16455
C 6.0000000 -1.10008 -1.76753 -0.20416
H 1.0000000 -1.02628 -0.00410 -1.42211
H 1.0000000 -1.85522 -2.27894 -0.81162
H 1.0000000 -0.11589 -2.14135 -0.50781
 $END
