 $BASIS GBASIS=N21 NGAUSS=3 $END
 $CONTRL SCFTYP=RHF MAXIT=60 MULT=1 ICHARG=0 $END
 $SYSTEM MEMDDI=1000 MWORDS=30 $END
 $SCF DIRSCF=.TRUE. $END
 $DATA

C1
H 1.0000000 -2.7886199311 0.0390124814 1.0771501014
H 1.0000000 -2.6705181812 1.3539159358 -0.1139253780
H 1.0000000 -0.2445111684 0.2437676115 1.5236704926
C 6.0000000 -2.5938947276 0.2684320041 0.0215550706
H 1.0000000 -0.1498151129 1.5544695629 0.3257484526
C 6.0000000 -0.1016528882 0.4669525950 0.4585244991
H 1.0000000 -3.3725012147 -0.2114753602 -0.5834557566
C 6.0000000 -1.1908954251 -0.2391148761 -0.3795998474
H 1.0000000 -1.2619095470 -2.0365379430 0.8496103776
H 1.0000000 0.8990643288 0.1268054168 0.1665596713
C 6.0000000 -1.0998554613 -1.7716233694 -0.2029347830
H 1.0000000 -1.0234396878 -0.0004529780 -1.4393864615
H 1.0000000 -1.8601869319 -2.2808628085 -0.8071475201
H 1.0000000 -0.1129540514 -2.1423982722 -0.5043389184
 $END
