 $BASIS GBASIS=N31 NGAUSS=6 NDFUNC=1 NPFUNC=1 $END
 $CONTRL SCFTYP=RHF RUNTYP=OPTIMIZE DFTTYP=B3LYP MAXIT=60 MULT=1 ICHARG=0 $END 
 $SYSTEM MEMDDI=1000 MWORDS=30 $END
 $STATPT NSTEP=999 $END
 $SCF DIRSCF=.TRUE. $END
 $DATA

C1
C 6.0000000 -1.38400 0.00000 0.02210
O 8.0000000 -2.74360 -0.00010 0.04460
C 6.0000000 -0.69060 1.20110 0.01240
C 6.0000000 0.69050 1.20120 -0.01060
C 6.0000000 1.38390 0.00000 -0.02350
O 8.0000000 2.74360 0.00010 -0.04660
C 6.0000000 0.69060 -1.20110 -0.01240
C 6.0000000 -0.69050 -1.20120 0.01450
H 1.0000000 -3.15150 0.00130 -0.83210
H 1.0000000 -1.23050 2.13640 0.02240
H 1.0000000 1.23050 2.13650 -0.01880
H 1.0000000 3.15180 -0.00080 0.83000
H 1.0000000 1.23050 -2.13640 -0.02210
H 1.0000000 -1.23040 -2.13650 0.02310
 $END
