 $BASIS GBASIS=N31 NGAUSS=6 NDFUNC=1 NPFUNC=1 $END
 $CONTRL SCFTYP=RHF RUNTYP=OPTIMIZE DFTTYP=B3LYP MAXIT=60 MULT=1 ICHARG=0 $END 
 $SYSTEM MEMDDI=1000 MWORDS=30 $END
 $STATPT NSTEP=999 $END
 $SCF DIRSCF=.TRUE. $END
 $DATA

C1
C 6.0000000 -1.18280 -0.21940 -0.33590
C 6.0000000 -2.23490 0.87230 -0.53680
C 6.0000000 -3.61580 0.33590 -0.15020
C 6.0000000 0.18990 0.30430 -0.77630
C 6.0000000 -3.95980 -0.87790 -1.01410
C 6.0000000 3.88540 -1.08520 0.97250
C 6.0000000 1.26580 -0.72980 -0.43840
C 6.0000000 -3.60770 -0.07460 1.32370
C 6.0000000 -1.13050 -0.61480 1.14120
C 6.0000000 -4.66490 1.42830 -0.36690
H 1.0000000 -5.53460 -2.14270 -1.16110
H 1.0000000 -5.00720 -0.67140 2.66040
H 1.0000000 3.18330 -0.78180 2.84760
O 8.0000000 5.26000 0.62050 -1.83890
C 6.0000000 -1.53620 -1.44080 -1.18860
C 6.0000000 -1.91000 2.07790 0.34980
C 6.0000000 -2.91290 -1.97110 -0.78700
C 6.0000000 -0.57010 2.68410 -0.07710
C 6.0000000 5.38610 -0.92740 1.26870
O 8.0000000 -5.25120 -1.37100 -0.65190
O 8.0000000 -4.93680 -0.40150 1.73450
O 8.0000000 3.10630 -0.40670 1.95970
C 6.0000000 0.47830 1.59380 -0.04190
C 6.0000000 3.70660 -0.43470 -0.38390
C 6.0000000 5.03270 0.04470 -0.79300
C 6.0000000 2.57170 -0.32060 -1.06950
O 8.0000000 5.95990 -0.23350 0.13150
C 6.0000000 1.60410 1.76250 0.60620
H 1.0000000 -2.24410 1.18040 -1.58230
H 1.0000000 0.18290 0.48940 -1.85050
H 1.0000000 -3.96240 -0.58790 -2.06480
H 1.0000000 -1.55010 -1.15650 -2.24080
H 1.0000000 -0.78880 -2.21910 -1.03420
H 1.0000000 -2.69600 2.82620 0.24710
H 1.0000000 -1.84840 1.75740 1.38980
H 1.0000000 -2.90200 -2.25160 0.26620
H 1.0000000 -3.15880 -2.84240 -1.39410
H 1.0000000 -0.65250 3.08190 -1.08860
H 1.0000000 -0.29260 3.48290 0.61070
H 1.0000000 1.38730 -0.78750 0.64320
H 1.0000000 0.96610 -1.70470 -0.82300
H 1.0000000 -2.96270 -0.94340 1.45540
H 1.0000000 -3.23310 0.75100 1.92880
H 1.0000000 -1.64870 -1.56340 1.28200
H 1.0000000 -0.09120 -0.71870 1.45300
H 1.0000000 -1.61440 0.15600 1.74110
H 1.0000000 -4.67020 1.72400 -1.41600
H 1.0000000 -5.64840 1.04720 -0.09190
H 1.0000000 -4.42350 2.29190 0.25280
H 1.0000000 2.58650 0.06530 -2.07810
H 1.0000000 3.61140 -2.13930 0.92950
H 1.0000000 2.36740 0.99930 0.57040
H 1.0000000 1.76900 2.66490 1.17630
H 1.0000000 5.52820 -0.33980 2.17560
H 1.0000000 5.84980 -1.90740 1.38140
 $END
