 $BASIS GBASIS=N21 NGAUSS=3 $END
 $CONTRL SCFTYP=UHF MAXIT=60 MULT=2 ICHARG=1 $END
 $SYSTEM MEMDDI=1000 MWORDS=30 $END
 $SCF DIRSCF=.TRUE. $END
 $STATPT OPTTOL=0.0001 NSTEP=999 $END
 $DATA

C1
C 6.0000000 0.1127566045 -0.2710303826 -0.1226320412
C 6.0000000 1.3944961576 0.4751942187 -0.5133223623
H 1.0000000 -1.7707198022 2.5348951386 -0.0773975411
H 1.0000000 -1.2416033649 1.7382700715 1.2844529698
H 1.0000000 3.8876627163 0.7853941977 -1.1628040244
H 1.0000000 4.6576966644 -0.0896128295 0.1378718485
O 8.0000000 -3.1693656403 0.0805962174 0.8933607439
O 8.0000000 2.4985147190 -0.7849061575 1.2624424506
O 8.0000000 -2.4851344188 -1.3714390772 -0.7454853964
C 6.0000000 -2.3798731145 -0.2154985101 0.0040833926
C 6.0000000 2.6020665228 -0.1014758280 0.2314904355
H 1.0000000 -3.2724061320 -1.8926701102 -0.4207167784
C 6.0000000 -1.1495470946 0.5790189378 -0.4156414949
N 7.0000000 -1.0728251139 1.8745650777 0.2804166958
N 7.0000000 3.8109532019 0.2270483868 -0.3220433577
H 1.0000000 -1.2121799228 0.7549074155 -1.4951817795
H 1.0000000 0.0189625136 -1.2227531510 -0.6527242297
H 1.0000000 0.1762175523 -0.4919887542 0.9490103546
H 1.0000000 1.5635086852 0.4452173740 -1.5966070556
H 1.0000000 1.2545792665 1.5237077645 -0.2146928300
 $END
