 $BASIS GBASIS=N21 NGAUSS=3 $END
 $CONTRL SCFTYP=RHF DFTTYP=B3LYP MAXIT=60 MULT=1 ICHARG=0 $END
 $SYSTEM MEMDDI=1000 MWORDS=30 $END
 $SCF DIRSCF=.TRUE. $END
 $ELPOT  IEPOT=1 WHERE=PDC $END
 $PDC PTSEL=GEODESIC CONSTR=CHARGE $END
 $DATA

C1
C 6.0000000 2.0025413511 0.7127237771 -0.2699196978
H 1.0000000 1.2521818107 -0.9234646185 0.9471744206
H 1.0000000 2.1238125269 1.4176128905 0.5611551589
C 6.0000000 0.9304298076 -0.3455179115 0.0701595279
C 6.0000000 -0.4466727243 0.2877754578 0.3599383593
C 6.0000000 -1.5254968132 -0.7766222425 0.6709600916
C 6.0000000 -3.9077905226 -0.1621337632 0.0818542312
N 7.0000000 -3.5104316033 -0.1653880640 -1.2588536771
N 7.0000000 -5.1091543515 -0.1503103595 0.5532577029
H 1.0000000 0.8346328448 -1.0539155490 -0.7644638426
N 7.0000000 -2.8393263676 -0.1895838370 0.9742456317
H 1.0000000 -0.3711517752 0.9763482732 1.2113387075
H 1.0000000 -0.7672996540 0.8843826073 -0.5058862000
H 1.0000000 -1.6313956600 -1.4555062867 -0.1833459236
H 1.0000000 -1.1960507846 -1.3708046708 1.5328026795
H 1.0000000 -2.6291431627 0.2632136922 -1.5189261451
H 1.0000000 -4.2304888294 -0.1942441150 -1.9700860306
H 1.0000000 -5.8253418866 0.0031955353 -0.1732479362
H 1.0000000 1.7110022663 1.2825224965 -1.1602685973
H 1.0000000 2.9727054919 0.2425477576 -0.4662092885
H 1.0000000 -3.1376619641 -0.1380410698 1.9428208280
 $END
