 $BASIS GBASIS=N21 NGAUSS=3 $END
 $CONTRL SCFTYP=RHF DFTTYP=B3LYP MAXIT=60 MULT=1 ICHARG=0 $END
 $SYSTEM MEMDDI=1000 MWORDS=30 $END
 $SCF DIRSCF=.TRUE. $END
 $ELPOT  IEPOT=1 WHERE=PDC $END
 $PDC PTSEL=CHELPG CONSTR=CHARGE $END
 $DATA

C1
C 6.0000000 0.2021047152 -1.7841536064 0.1483604467
C 6.0000000 3.1988607718 0.2466776296 -0.1574526975
C 6.0000000 3.7060288642 -1.0001288224 -0.0067554102
C 6.0000000 1.3095747275 3.1187694510 0.8190538042
C 6.0000000 0.6932377593 1.0150863253 -0.2162175030
O 8.0000000 -4.3865689869 -1.0844707542 0.0720230848
O 8.0000000 0.8807747290 2.3854611387 -0.3990311099
C 6.0000000 -3.3012513204 -0.5365398047 -0.0111719438
C 6.0000000 -0.6182463788 0.5105996451 -0.1502796039
C 6.0000000 -0.8491841578 -0.8781003943 0.0289541015
O 8.0000000 -2.1339398835 -1.3715047939 0.0961285794
C 6.0000000 -1.7660019273 1.3677794626 -0.2795124607
C 6.0000000 -3.0230595767 0.8774722132 -0.2131592612
C 6.0000000 1.7539692360 0.1201173789 -0.1066208556
C 6.0000000 1.4794774358 -1.2576736316 0.0717297479
O 8.0000000 2.6751729043 -1.9650113655 0.1428127052
H 1.0000000 -1.5802137610 2.4214022240 -0.4480101944
H 1.0000000 0.0105952789 -2.8370415824 0.2846551992
H 1.0000000 -3.8937211108 1.5101580651 -0.3130446488
H 1.0000000 3.7599841652 1.1526764505 -0.3100072963
H 1.0000000 0.5366752043 3.0622100485 1.5930182637
H 1.0000000 2.2489273807 2.7183312018 1.2138203106
H 1.0000000 1.4463617886 4.1506305791 0.4946372705
H 1.0000000 4.7036421424 -1.3992470581 0.0147694715
 $END
