 $BASIS GBASIS=N21 NGAUSS=3 $END
 $CONTRL SCFTYP=RHF RUNTYP=OPTIMIZE DFTTYP=B3LYP MAXIT=60 MULT=1 ICHARG=0 $END 
 $SYSTEM MEMDDI=1000 MWORDS=30 $END
 $STATPT NSTEP=999 $END
 $SCF DIRSCF=.TRUE. $END
 $DATA

C1
C 6.0000000 -0.77796 -0.17217 0.40896
H 1.0000000 -0.74890 -0.52781 1.44514
C 6.0000000 -1.28845 -1.27981 -0.53870
H 1.0000000 -1.31756 -0.92417 -1.57489
H 1.0000000 -0.63506 -2.15875 -0.49987
H 1.0000000 -2.30012 -1.59611 -0.26028
H 1.0000000 -1.43133 0.70679 0.37009
H 1.0000000 0.23367 0.14420 0.13047
 $END
