 $BASIS GBASIS=N21 NGAUSS=3 $END
 $CONTRL SCFTYP=RHF DFTTYP=B3LYP MAXIT=60 MULT=1 ICHARG=0 $END
 $SYSTEM MEMDDI=1000 MWORDS=30 $END
 $SCF DIRSCF=.TRUE. $END
 $ELPOT  IEPOT=1 WHERE=PDC $END
 $PDC PTSEL=CHELPG CONSTR=CHARGE $END
 $DATA

C1
C 6.0000000 -0.7779600000 -0.1721700000 0.4089600000
H 1.0000000 -0.7489000000 -0.5278100000 1.4451400000
C 6.0000000 -1.2884500000 -1.2798100000 -0.5387000000
H 1.0000000 -1.3175600000 -0.9241700000 -1.5748900000
H 1.0000000 -0.6350600000 -2.1587500000 -0.4998700000
H 1.0000000 -2.3001200000 -1.5961100000 -0.2602800000
H 1.0000000 -1.4313300000 0.7067900000 0.3700900000
H 1.0000000 0.2336700000 0.1442000000 0.1304700000
 $END
