 $BASIS GBASIS=N21 NGAUSS=3 $END
 $CONTRL SCFTYP=RHF DFTTYP=B3LYP MAXIT=60 MULT=1 ICHARG=0 $END
 $SYSTEM MEMDDI=1000 MWORDS=30 $END
 $SCF DIRSCF=.TRUE. $END
 $ELPOT  IEPOT=1 WHERE=PDC $END
 $PDC PTSEL=CHELPG CONSTR=CHARGE $END
 $DATA

C1
C 6.0000000 -2.26374 0.11023 0.14447
C 6.0000000 -1.49833 -0.94862 -0.66496
C 6.0000000 -0.02680 -1.09639 -0.24556
C 6.0000000 0.73370 0.24654 -0.28492
C 6.0000000 -0.04250 1.31749 0.51291
C 6.0000000 -1.50818 1.44649 0.06762
C 6.0000000 2.21545 0.11630 0.16509
C 6.0000000 2.95668 -1.02560 -0.55286
C 6.0000000 2.99301 1.43114 -0.03318
O 8.0000000 0.08621 -1.61694 1.09283
C 6.0000000 -3.71784 0.23915 -0.32516
H 1.0000000 -2.26868 -0.20899 1.19666
H 1.0000000 -1.99450 -1.92779 -0.58297
H 1.0000000 -1.52763 -0.68233 -1.73266
H 1.0000000 0.45502 -1.79883 -0.94070
H 1.0000000 0.73756 0.55087 -1.34558
H 1.0000000 -0.00540 1.05744 1.57915
H 1.0000000 0.44572 2.29131 0.40705
H 1.0000000 -1.54662 1.81730 -0.96936
H 1.0000000 -2.01783 2.19969 0.68328
H 1.0000000 2.20771 -0.11894 1.23761
H 1.0000000 2.93688 -0.89104 -1.64299
H 1.0000000 4.00838 -1.04860 -0.24464
H 1.0000000 2.52952 -2.00501 -0.31933
H 1.0000000 2.98729 1.73526 -1.08870
H 1.0000000 2.58308 2.25658 0.55592
H 1.0000000 4.03938 1.30508 0.26735
H 1.0000000 -0.40140 -2.44938 1.14262
H 1.0000000 -4.25447 -0.71313 -0.23343
H 1.0000000 -4.26071 0.98601 0.26622
H 1.0000000 -3.76740 0.54871 -1.37739
 $END
