 $BASIS GBASIS=N21 NGAUSS=3 $END
 $CONTRL SCFTYP=UHF MAXIT=60 MULT=2 ICHARG=-2 $END
 $SYSTEM MEMDDI=1000 MWORDS=30 $END
 $SCF DIRSCF=.TRUE. $END
 $STATPT OPTTOL=0.0001 NSTEP=999 $END
 $DATA

C1
N 7.0000000 0.3810370757 1.6923413159 0.0808006306
C 6.0000000 0.4970095508 0.2337179997 0.3216522238
H 1.0000000 0.4047562368 0.0261343867 1.3923811507
C 6.0000000 -0.5889031544 -0.6067879914 -0.4262408447
C 6.0000000 -2.0761923994 -0.1632437338 -0.0621850493
O 8.0000000 -2.2350172152 1.0729336858 0.2596876628
O 8.0000000 -2.9432755245 -1.0717161112 -0.1706289836
C 6.0000000 1.8395627628 -0.2499545261 -0.1430321301
O 8.0000000 2.5678865107 0.2389141287 -1.0066366506
O 8.0000000 2.1837426615 -1.4562133818 0.4764104891
H 1.0000000 0.7097495692 1.8633652391 -0.8824836981
H 1.0000000 -0.6595751979 1.8364040149 0.1365693320
H 1.0000000 -0.4418826923 -0.4540442610 -1.5072542986
H 1.0000000 -0.4824094266 -1.6728985968 -0.2085791243
H 1.0000000 3.0332312428 -1.7582321687 0.0461792905
 $END
