 $BASIS GBASIS=N21 NGAUSS=3 $END
 $CONTRL SCFTYP=RHF RUNTYP=OPTIMIZE DFTTYP=B3LYP MAXIT=60 MULT=1 ICHARG=-1 $END 
 $SYSTEM MEMDDI=1000 MWORDS=30 $END
 $STATPT NSTEP=999 $END
 $SCF DIRSCF=.TRUE. $END
 $DATA

C1
N 7.0000000 0.44109 1.68726 0.01276
C 6.0000000 0.49512 0.24463 0.26356
H 1.0000000 0.38859 0.08877 1.34202
C 6.0000000 -0.61124 -0.58598 -0.44393
C 6.0000000 -2.08150 -0.19254 -0.04104
O 8.0000000 -2.21895 0.84340 0.67090
O 8.0000000 -2.96124 -0.96226 -0.49480
C 6.0000000 1.83814 -0.29933 -0.16024
O 8.0000000 2.51665 0.08289 -1.09765
O 8.0000000 2.24064 -1.36438 0.59897
H 1.0000000 0.61626 1.85572 -0.97718
H 1.0000000 -0.53392 1.93449 0.20966
H 1.0000000 -0.51752 -0.46111 -1.53208
H 1.0000000 -0.48412 -1.65511 -0.23449
H 1.0000000 3.06172 -1.68573 0.19018
 $END
