 $BASIS GBASIS=N31 NGAUSS=6 NDFUNC=1 NPFUNC=1 $END
 $CONTRL SCFTYP=RHF RUNTYP=OPTIMIZE DFTTYP=B3LYP MAXIT=60 MULT=1 ICHARG=0 $END 
 $SYSTEM MEMDDI=1000 MWORDS=30 $END
 $STATPT NSTEP=999 $END
 $SCF DIRSCF=.TRUE. $END
 $DATA

C1
C 6.0000000 1.64960 -0.27740 0.01820
C 6.0000000 2.53660 -1.35640 0.01780
C 6.0000000 3.90210 -1.12720 0.01490
O 8.0000000 4.76610 -2.17620 0.01450
C 6.0000000 4.38980 0.17190 0.01210
C 6.0000000 3.51270 1.24730 0.01250
O 8.0000000 3.99650 2.51730 0.00920
C 6.0000000 2.14550 1.02840 0.01580
C 6.0000000 0.19510 -0.51590 0.01510
C 6.0000000 -0.65560 0.52300 0.01550
C 6.0000000 -2.10960 0.28460 0.01240
C 6.0000000 -2.99720 1.36450 0.01280
C 6.0000000 -4.35610 1.13650 0.00990
C 6.0000000 -4.84440 -0.16390 0.00710
O 8.0000000 -6.18500 -0.38370 0.00470
C 6.0000000 -3.96640 -1.24020 0.00620
C 6.0000000 -2.60580 -1.02220 0.00320
H 1.0000000 2.15790 -2.36790 0.02000
H 1.0000000 5.01450 -2.48080 -0.86900
H 1.0000000 5.45560 0.34670 0.00990
H 1.0000000 4.13430 2.88340 -0.87520
H 1.0000000 1.46370 1.86600 0.01570
H 1.0000000 -0.18650 -1.52620 0.01250
H 1.0000000 -0.27410 1.53330 0.01810
H 1.0000000 -2.61840 2.37590 0.01570
H 1.0000000 -5.04260 1.97020 0.01020
H 1.0000000 -6.57180 -0.44590 -0.87940
H 1.0000000 -4.35070 -2.24950 0.00360
H 1.0000000 -1.92390 -1.85970 0.00210
 $END
