 $BASIS GBASIS=N21 NGAUSS=3 $END
 $CONTRL SCFTYP=RHF DFTTYP=B3LYP MAXIT=60 MULT=1 ICHARG=0 $END
 $SYSTEM MEMDDI=1000 MWORDS=30 $END
 $SCF DIRSCF=.TRUE. $END
 $ELPOT  IEPOT=1 WHERE=PDC $END
 $PDC PTSEL=GEODESIC CONSTR=CHARGE $END
 $DATA

C1
C 6.0000000 2.80364 1.40441 0.05273
C 6.0000000 -2.90416 -1.24309 0.34434
C 6.0000000 -2.89721 1.20058 -0.28664
O 8.0000000 2.60323 -1.50432 -0.46787
C 6.0000000 -0.21938 0.65599 1.23170
C 6.0000000 0.17255 -1.31332 -0.33982
C 6.0000000 1.60622 0.72605 -0.61940
C 6.0000000 1.61032 -0.80490 -0.47300
C 6.0000000 -2.15306 -0.13723 -0.42183
C 6.0000000 0.22114 1.13361 -0.13709
C 6.0000000 -0.68036 -0.09100 -0.00323
H 1.0000000 0.50888 0.18271 1.88934
H 1.0000000 -0.94401 1.26959 1.75843
H 1.0000000 -0.12166 -1.74496 -1.30876
H 1.0000000 0.13206 -2.12366 0.39612
H 1.0000000 -2.16241 -0.40723 -1.49002
H 1.0000000 -0.18035 2.07872 -0.49151
H 1.0000000 1.66276 0.91034 -1.70561
H 1.0000000 2.76626 1.27472 1.13969
H 1.0000000 3.74033 0.96871 -0.30713
H 1.0000000 2.81226 2.47845 -0.16020
H 1.0000000 -2.90781 -1.03440 1.42139
H 1.0000000 -3.94643 -1.30873 0.01175
H 1.0000000 -2.44607 -2.22667 0.19603
H 1.0000000 -2.41693 2.00125 -0.85853
H 1.0000000 -3.92118 1.09727 -0.66153
H 1.0000000 -2.96639 1.52205 0.75936
 $END
