 $BASIS GBASIS=N21 NGAUSS=3 $END
 $CONTRL SCFTYP=UHF MAXIT=60 MULT=2 ICHARG=0 $END
 $SYSTEM MEMDDI=1000 MWORDS=30 $END
 $SCF DIRSCF=.TRUE. $END
 $STATPT OPTTOL=0.0001 NSTEP=999 $END
 $DATA

C1
C 6.0000000 0.4551415410 0.3408957085 0.2100323971
H 1.0000000 0.2684142964 0.5553983642 1.2748669859
C 6.0000000 -0.5805120688 -0.6684355398 -0.3135699219
C 6.0000000 1.9367202401 -0.2670780566 0.1106591076
O 8.0000000 2.8699458607 0.5925748323 0.1199474209
O 8.0000000 1.9962778316 -1.5430544152 0.0737562441
H 1.0000000 -0.6669588297 -0.6088722435 -1.4079523709
H 1.0000000 -0.1512903456 -1.6479703847 -0.0667222406
H 1.0000000 0.4440172203 1.2984036810 -0.3223335455
H 1.0000000 -1.5859657458 -0.5473119463 0.1168459233
 $END
