 $BASIS GBASIS=N21 NGAUSS=3 $END
 $CONTRL SCFTYP=RHF RUNTYP=OPTIMIZE DFTTYP=B3LYP MAXIT=60 MULT=1 ICHARG=-1 $END 
 $SYSTEM MEMDDI=1000 MWORDS=30 $END
 $STATPT NSTEP=999 $END
 $SCF DIRSCF=.TRUE. $END
 $DATA

C1
C 6.0000000 0.47969 0.29261 0.23080
H 1.0000000 0.31081 0.46538 1.30625
C 6.0000000 -0.58238 -0.67017 -0.30249
C 6.0000000 1.95900 -0.23742 0.07388
O 8.0000000 2.84372 0.65390 0.08735
O 8.0000000 2.07911 -1.48813 -0.01044
H 1.0000000 -0.54613 -0.72895 -1.39838
H 1.0000000 -0.35786 -1.67339 0.07136
H 1.0000000 0.40839 1.27979 -0.24487
H 1.0000000 -1.60856 -0.38907 -0.01793
 $END
