 $BASIS GBASIS=N31 NGAUSS=6 NDFUNC=1 NPFUNC=1 $END
 $CONTRL SCFTYP=RHF RUNTYP=OPTIMIZE DFTTYP=B3LYP MAXIT=60 MULT=1 ICHARG=0 $END 
 $SYSTEM MEMDDI=1000 MWORDS=30 $END
 $STATPT NSTEP=999 $END
 $SCF DIRSCF=.TRUE. $END
 $DATA

C1
C 6.0000000 0.72480 0.24480 0.55330
C 6.0000000 -0.72480 -0.24480 0.55330
C 6.0000000 3.79600 -0.72080 -0.13860
C 6.0000000 -3.79600 0.72080 -0.13860
C 6.0000000 3.29240 1.38560 -1.16400
C 6.0000000 -3.29240 -1.38560 -1.16400
C 6.0000000 4.62940 1.73460 -1.11600
C 6.0000000 -4.62940 -1.73460 -1.11600
C 6.0000000 1.41810 -0.21440 -0.73100
C 6.0000000 -1.41810 0.21440 -0.73100
C 6.0000000 0.74710 1.77280 0.62650
C 6.0000000 -0.74710 -1.77280 0.62650
C 6.0000000 5.54130 -2.49040 0.92630
C 6.0000000 -5.54130 2.49040 0.92630
H 1.0000000 7.37370 0.93740 -1.31480
H 1.0000000 -7.37370 -0.93740 -1.31480
H 1.0000000 0.14210 3.15920 1.97310
H 1.0000000 -0.14210 -3.15920 1.97310
C 6.0000000 2.87660 0.16090 -0.67620
C 6.0000000 -2.87660 -0.16090 -0.67620
C 6.0000000 5.13720 -0.37730 -0.08740
C 6.0000000 -5.13720 0.37730 -0.08740
C 6.0000000 5.55580 0.85600 -0.57820
C 6.0000000 -5.55580 -0.85600 -0.57820
O 8.0000000 6.87120 1.19750 -0.53060
O 8.0000000 -6.87120 -1.19750 -0.53060
O 8.0000000 0.16170 2.19920 1.85840
O 8.0000000 -0.16170 -2.19920 1.85840
O 8.0000000 6.04280 -1.24320 0.44150
O 8.0000000 -6.04280 1.24320 0.44150
H 1.0000000 1.24770 -0.16800 1.41600
H 1.0000000 -1.24770 0.16800 1.41600
H 1.0000000 1.32470 -1.29610 -0.82760
H 1.0000000 0.95060 0.26870 -1.58900
H 1.0000000 -1.32470 1.29610 -0.82760
H 1.0000000 -0.95060 -0.26870 -1.58900
H 1.0000000 3.46800 -1.67540 0.24560
H 1.0000000 -3.46800 1.67540 0.24560
H 1.0000000 2.57120 2.07160 -1.58320
H 1.0000000 -2.57120 -2.07160 -1.58320
H 1.0000000 4.95160 2.69210 -1.49780
H 1.0000000 -4.95160 -2.69210 -1.49780
H 1.0000000 1.77750 2.12420 0.57310
H 1.0000000 0.17900 2.18490 -0.20750
H 1.0000000 -1.77750 -2.12420 0.57310
H 1.0000000 -0.17900 -2.18490 -0.20750
H 1.0000000 4.81460 -2.30690 1.71770
H 1.0000000 5.06130 -3.03080 0.11040
H 1.0000000 6.36550 -3.08480 1.32050
H 1.0000000 -4.81460 2.30690 1.71770
H 1.0000000 -5.06130 3.03080 0.11040
H 1.0000000 -6.36550 3.08480 1.32050
 $END
