 $BASIS GBASIS=N21 NGAUSS=3 $END
 $CONTRL SCFTYP=RHF DFTTYP=B3LYP MAXIT=60 MULT=1 ICHARG=0 $END
 $SYSTEM MEMDDI=1000 MWORDS=30 $END
 $SCF DIRSCF=.TRUE. $END
 $ELPOT  IEPOT=1 WHERE=PDC $END
 $PDC PTSEL=GEODESIC CONSTR=CHARGE $END
 $DATA

C1
N 7.0000000 1.1524698093 1.8760057940 0.0709383901
C 6.0000000 1.2587064113 0.4616117801 0.4632832417
H 1.0000000 1.2441497425 0.3825940630 1.5552731644
C 6.0000000 0.0598481214 -0.3510172830 -0.1022683233
C 6.0000000 -1.2574885931 0.2065915060 0.4415461091
S 16.0000000 -2.7102918281 -0.6578179199 -0.4411924263
C 6.0000000 -4.1344165821 0.3201939932 0.3523414332
C 6.0000000 2.5506812990 -0.1681510798 -0.0443921531
O 8.0000000 3.3582373667 0.3510452781 -0.8065313635
O 8.0000000 2.6837241210 -1.4535361911 0.4400619189
H 1.0000000 1.7074583867 2.4808837962 0.6845739417
H 1.0000000 1.4893166812 1.9924014208 -0.8922645610
H 1.0000000 0.0686815662 -0.2648965739 -1.1962542117
H 1.0000000 0.1914451334 -1.4026420895 0.1654548061
H 1.0000000 -1.3520719729 0.0158282216 1.5144923394
H 1.0000000 -1.3006296382 1.2778036949 0.2410230932
H 1.0000000 -4.1435575452 0.1479560913 1.4301069052
H 1.0000000 -4.0174061559 1.3815446544 0.1273397132
H 1.0000000 -5.0528449400 -0.0609010433 -0.0964544280
H 1.0000000 3.5133486168 -1.8575581132 0.0586824106
 $END
