 $BASIS GBASIS=N31 NGAUSS=6 NDFUNC=1 NPFUNC=1 $END
 $CONTRL SCFTYP=RHF RUNTYP=OPTIMIZE DFTTYP=B3LYP MAXIT=60 MULT=1 ICHARG=0 $END 
 $SYSTEM MEMDDI=1000 MWORDS=30 $END
 $STATPT NSTEP=999 $END
 $SCF DIRSCF=.TRUE. $END
 $DATA

C1
C 6.0000000 0.73910 -0.32540 -0.17130
C 6.0000000 -0.72890 -0.17790 0.23400
C 6.0000000 3.71470 1.00170 0.30500
C 6.0000000 3.76290 -1.37570 0.60150
C 6.0000000 -3.75260 0.87240 -0.53840
C 6.0000000 -3.70470 -1.50510 -0.24270
C 6.0000000 5.09120 -1.40180 0.21940
C 6.0000000 -5.03280 -1.48950 0.14070
C 6.0000000 1.62840 -0.15380 1.06180
C 6.0000000 -1.61820 -0.34940 -0.99910
C 6.0000000 0.96480 -1.71360 -0.77370
C 6.0000000 -0.95460 1.21030 0.83640
H 1.0000000 6.10180 2.58590 0.33180
H 1.0000000 -6.20070 2.30550 -0.94100
H 1.0000000 7.66600 -0.14540 0.23590
H 1.0000000 -7.65540 -0.37900 -0.17060
C 6.0000000 3.07610 -0.17660 0.64410
C 6.0000000 -3.06600 -0.32670 -0.58150
C 6.0000000 5.04600 0.98260 -0.07890
C 6.0000000 -5.08390 0.89500 -0.15500
C 6.0000000 5.73720 -0.22440 -0.12180
C 6.0000000 -5.72680 -0.29110 0.18600
O 8.0000000 5.67550 2.14070 -0.41330
O 8.0000000 -5.76070 2.07380 -0.11160
O 8.0000000 7.04410 -0.24830 -0.49740
O 8.0000000 -7.03350 -0.27410 0.56250
H 1.0000000 0.99050 0.43630 -0.90940
H 1.0000000 -0.98030 -0.93950 0.97210
H 1.0000000 1.40370 0.79850 1.54210
H 1.0000000 1.43940 -0.96750 1.76210
H 1.0000000 0.71330 -2.47520 -0.03570
H 1.0000000 0.33120 -1.83580 -1.65230
H 1.0000000 2.01060 -1.81870 -1.06250
H 1.0000000 -1.42920 0.46420 -1.69940
H 1.0000000 -1.39350 -1.30170 -1.47950
H 1.0000000 -0.70320 1.97200 0.09830
H 1.0000000 -2.00040 1.31540 1.12520
H 1.0000000 -0.32100 1.33250 1.71490
H 1.0000000 3.17470 1.93650 0.33480
H 1.0000000 3.26050 -2.29410 0.86690
H 1.0000000 -3.25000 1.79210 -0.79920
H 1.0000000 -3.16480 -2.43980 -0.27730
H 1.0000000 5.62560 -2.33980 0.18730
H 1.0000000 -5.52950 -2.41150 0.40450
 $END
