 $BASIS GBASIS=N21 NGAUSS=3 $END
 $CONTRL SCFTYP=RHF DFTTYP=B3LYP MAXIT=60 MULT=1 ICHARG=-1 $END
 $SYSTEM MEMDDI=1000 MWORDS=30 $END
 $SCF DIRSCF=.TRUE. $END
 $ELPOT  IEPOT=1 WHERE=PDC $END
 $PDC PTSEL=CHELPG CONSTR=CHARGE $END
 $DATA

C1
N 7.0000000 1.4356827338 1.7889070568 -0.2056627783
C 6.0000000 1.2318240967 0.4860589907 0.4723225933
H 1.0000000 1.3062770362 0.6140987068 1.5578554868
C 6.0000000 -0.1191060706 -0.2352198271 0.1401509388
C 6.0000000 -1.3849327350 0.5395402170 0.5128261521
C 6.0000000 -2.6293788866 0.0034727785 -0.3619380391
O 8.0000000 -2.3043620445 -0.5227316004 -1.4774001474
O 8.0000000 -3.7653648763 0.2071044815 0.1561402135
C 6.0000000 2.3450624255 -0.4261312833 0.0298608976
O 8.0000000 3.0341638783 -0.3380024044 -0.9843948157
O 8.0000000 2.4673150391 -1.5057590818 0.8988766939
H 1.0000000 1.6577937918 1.6002862563 -1.1918413143
H 1.0000000 0.5676120803 2.3338319135 -0.1542355498
H 1.0000000 -0.2175281932 -0.4125574528 -0.9396328707
H 1.0000000 -0.1105618717 -1.2118889203 0.6401154377
H 1.0000000 -1.6439298295 0.4729741659 1.5743510618
H 1.0000000 -1.2691557059 1.6061869390 0.2561348048
H 1.0000000 3.1349691315 -2.1284409360 0.4950512350
 $END
