 $BASIS GBASIS=N21 NGAUSS=3 $END
 $CONTRL SCFTYP=RHF RUNTYP=OPTIMIZE DFTTYP=B3LYP MAXIT=60 MULT=1 ICHARG=-1 $END 
 $SYSTEM MEMDDI=1000 MWORDS=30 $END
 $STATPT NSTEP=999 $END
 $SCF DIRSCF=.TRUE. $END
 $DATA

C1
N 7.0000000 1.49860 1.77733 -0.13114
C 6.0000000 1.19889 0.45345 0.42911
H 1.0000000 1.15102 0.54079 1.52191
C 6.0000000 -0.12558 -0.20294 -0.06557
C 6.0000000 -1.38394 0.53801 0.39431
C 6.0000000 -2.71386 -0.03256 -0.22481
O 8.0000000 -2.62363 -0.47897 -1.39991
O 8.0000000 -3.72552 0.05401 0.51906
C 6.0000000 2.35123 -0.46905 0.10042
O 8.0000000 3.06812 -0.40077 -0.88106
O 8.0000000 2.49727 -1.46887 1.01389
H 1.0000000 1.80987 1.66203 -1.09432
H 1.0000000 0.64052 2.32267 -0.15604
H 1.0000000 -0.12308 -0.25703 -1.16037
H 1.0000000 -0.16765 -1.23520 0.30569
H 1.0000000 -1.47013 0.52398 1.48792
H 1.0000000 -1.34066 1.59611 0.09021
H 1.0000000 3.19491 -2.05126 0.66928
 $END
