 $BASIS GBASIS=N21 NGAUSS=3 $END
 $CONTRL SCFTYP=RHF DFTTYP=B3LYP MAXIT=60 MULT=1 ICHARG=0 $END
 $SYSTEM MEMDDI=1000 MWORDS=30 $END
 $SCF DIRSCF=.TRUE. $END
 $ELPOT  IEPOT=1 WHERE=PDC $END
 $PDC PTSEL=GEODESIC CONSTR=CHARGE $END
 $DATA

C1
O 8.0000000 -2.52029 2.48217 0.42397
C 6.0000000 -2.45477 1.55258 -0.67516
C 6.0000000 -2.75856 0.18176 -0.15067
C 6.0000000 -1.94497 -0.88933 -0.12523
C 6.0000000 -0.51234 -0.89438 -0.62308
C 6.0000000 0.53133 -0.78642 0.52209
C 6.0000000 1.94372 -0.92199 0.01813
C 6.0000000 2.95467 -0.03832 0.09679
C 6.0000000 2.86642 1.32280 0.74618
C 6.0000000 4.31534 -0.36812 -0.47476
C 6.0000000 -2.43347 -2.20409 0.44011
H 1.0000000 -2.51047 3.38088 0.06861
H 1.0000000 -3.20532 1.82699 -1.43354
H 1.0000000 -1.46751 1.59759 -1.15009
H 1.0000000 -3.76117 0.07749 0.26379
H 1.0000000 -0.33076 -1.82766 -1.17497
H 1.0000000 -0.33187 -0.08102 -1.33143
H 1.0000000 0.37597 0.15839 1.05070
H 1.0000000 0.33781 -1.58446 1.25274
H 1.0000000 2.15368 -1.87207 -0.47863
H 1.0000000 1.87519 1.55348 1.14104
H 1.0000000 3.58534 1.39874 1.57313
H 1.0000000 3.13580 2.10918 0.02802
H 1.0000000 4.61440 0.36959 -1.23206
H 1.0000000 5.08767 -0.34297 0.30640
H 1.0000000 4.33353 -1.35866 -0.93897
H 1.0000000 -2.43390 -2.98463 -0.33293
H 1.0000000 -1.77792 -2.56016 1.24479
H 1.0000000 -3.44754 -2.12234 0.84213
 $END
