 $BASIS GBASIS=N21 NGAUSS=3 $END
 $CONTRL SCFTYP=RHF MAXIT=60 MULT=1 ICHARG=0 $END
 $SYSTEM MEMDDI=1000 MWORDS=30 $END
 $SCF DIRSCF=.TRUE. $END
 $DATA

C1
C 6.0000000 0.3776508234 0.5005596787 0.5201342728
H 1.0000000 0.3318690586 0.3129686588 1.6006186958
C 6.0000000 -0.8165289278 -0.1806766001 -0.1870478312
H 1.0000000 -0.7526400823 0.0321521191 -1.2642355839
C 6.0000000 -0.7444617928 -1.7109723205 0.0186817402
C 6.0000000 -2.1519330309 0.4038417109 0.3401056798
C 6.0000000 -3.3934549803 -0.0624879555 -0.4521422573
H 1.0000000 0.2077132956 -2.1048896496 -0.3563001995
H 1.0000000 -0.8165627027 -1.9458092430 1.0883890923
H 1.0000000 -1.5557806032 -2.2276532022 -0.5049881419
H 1.0000000 -2.2606009332 0.1277961281 1.3986578515
H 1.0000000 -2.0947253550 1.5004106702 0.2975091464
H 1.0000000 -3.2931293736 0.2055642265 -1.5110699010
H 1.0000000 -3.5243096303 -1.1475656317 -0.3839796588
H 1.0000000 -4.3019554242 0.4125327323 -0.0641797760
H 1.0000000 1.3302125329 0.1083056313 0.1444838018
H 1.0000000 0.3621271259 1.5851030467 0.3581530688
 $END
