 $BASIS GBASIS=N21 NGAUSS=3 $END
 $CONTRL SCFTYP=UHF MAXIT=60 MULT=2 ICHARG=-1 $END
 $SYSTEM MEMDDI=1000 MWORDS=30 $END
 $SCF DIRSCF=.TRUE. $END
 $STATPT OPTTOL=0.0001 NSTEP=999 $END
 $DATA

C1
C 6.0000000 0.0000010146 0.0000000000 0.0000000000
O 8.0000000 -1.1830206635 0.0000000000 0.0000000000
O 8.0000000 1.1830196489 0.0000000000 0.0000000000
 $END
