 $BASIS GBASIS=N31 NGAUSS=6 NDFUNC=1 NPFUNC=1 $END
 $CONTRL SCFTYP=RHF RUNTYP=OPTIMIZE DFTTYP=B3LYP MAXIT=60 MULT=1 ICHARG=0 $END 
 $SYSTEM MEMDDI=1000 MWORDS=30 $END
 $STATPT NSTEP=999 $END
 $SCF DIRSCF=.TRUE. $END
 $DATA

C1
C 6.0000000 -0.12090 2.12880 -0.00100
C 6.0000000 1.23580 2.42450 0.00540
C 6.0000000 2.17340 1.41450 0.01210
H 1.0000000 2.96880 -1.20220 -0.86060
C 6.0000000 1.77110 0.07840 0.01310
O 8.0000000 -2.81560 1.35020 -0.01180
O 8.0000000 0.76270 -2.53920 0.01490
O 8.0000000 2.69600 -0.91220 0.02060
C 6.0000000 -1.98110 0.46700 -0.00580
C 6.0000000 -0.04780 -1.63330 0.00900
C 6.0000000 -0.54200 0.80540 -0.00010
C 6.0000000 0.40960 -0.23180 0.00720
C 6.0000000 -2.39950 -0.94700 -0.00370
C 6.0000000 -1.49220 -1.93280 0.00320
H 1.0000000 -0.84800 2.92740 -0.00210
H 1.0000000 -3.45150 -1.19120 -0.00750
H 1.0000000 1.55910 3.45500 0.00470
H 1.0000000 -1.82290 -2.96090 0.00470
H 1.0000000 3.22550 1.65840 0.01630
 $END
