 $BASIS GBASIS=N21 NGAUSS=3 $END
 $CONTRL SCFTYP=RHF DFTTYP=B3LYP MAXIT=60 MULT=1 ICHARG=0 $END
 $SYSTEM MEMDDI=1000 MWORDS=30 $END
 $SCF DIRSCF=.TRUE. $END
 $ELPOT  IEPOT=1 WHERE=PDC $END
 $PDC PTSEL=CHELPG CONSTR=CHARGE $END
 $DATA

C1
O 8.0000000 1.49055 -0.06187 1.95116
C 6.0000000 -0.08613 -1.11380 0.46859
C 6.0000000 0.56205 0.24859 0.88985
C 6.0000000 -1.24059 -0.76227 -0.52363
C 6.0000000 1.34295 0.86772 -0.37773
C 6.0000000 0.88663 0.08027 -1.65126
C 6.0000000 -0.64786 0.01253 -1.74701
C 6.0000000 0.95069 -2.00078 -0.26938
C 6.0000000 1.39711 -1.37040 -1.60954
C 6.0000000 -2.38220 0.01577 0.17213
C 6.0000000 -0.52399 1.16758 1.52170
C 6.0000000 -1.84594 1.33955 0.74910
C 6.0000000 -0.58537 -1.92375 1.68244
C 6.0000000 1.10487 2.38132 -0.59009
C 6.0000000 2.87661 0.72091 -0.21025
C 6.0000000 -3.59531 0.24840 -0.74061
H 1.0000000 -1.65478 -1.71795 -0.87566
H 1.0000000 1.28791 0.59372 -2.53592
H 1.0000000 -0.92345 -0.48591 -2.68384
H 1.0000000 -1.06688 1.02112 -1.81476
H 1.0000000 1.80589 -2.15606 0.39728
H 1.0000000 0.50396 -2.98945 -0.43327
H 1.0000000 0.97422 -1.91777 -2.46135
H 1.0000000 2.48390 -1.41815 -1.72602
H 1.0000000 -2.73189 -0.60023 1.01074
H 1.0000000 -0.74510 0.72543 2.49879
H 1.0000000 -0.09066 2.15348 1.73198
H 1.0000000 -1.72581 2.06444 -0.06400
H 1.0000000 -2.59450 1.77825 1.42190
H 1.0000000 -1.22287 -1.35539 2.36285
H 1.0000000 -1.16107 -2.79119 1.33587
H 1.0000000 0.26364 -2.29068 2.26542
H 1.0000000 1.41407 2.96525 0.28449
H 1.0000000 1.71592 2.72485 -1.43310
H 1.0000000 0.06939 2.64360 -0.81456
H 1.0000000 3.18916 -0.28078 0.08432
H 1.0000000 3.36951 0.97636 -1.15641
H 1.0000000 3.25945 1.41494 0.54644
H 1.0000000 1.82935 0.76353 2.32201
H 1.0000000 -3.99939 -0.70058 -1.11296
H 1.0000000 -4.39725 0.76195 -0.19649
H 1.0000000 -3.34077 0.86725 -1.60882
 $END
