 $BASIS GBASIS=N31 NGAUSS=6 NDFUNC=1 NPFUNC=1 $END
 $CONTRL SCFTYP=RHF RUNTYP=OPTIMIZE DFTTYP=B3LYP MAXIT=60 MULT=1 ICHARG=0 $END 
 $SYSTEM MEMDDI=1000 MWORDS=30 $END
 $STATPT NSTEP=999 $END
 $SCF DIRSCF=.TRUE. $END
 $DATA

C1
C 6.0000000 -1.56490 0.85340 0.79640
C 6.0000000 -0.66540 0.89480 -0.45420
C 6.0000000 0.72610 0.45730 0.06470
C 6.0000000 -3.93450 0.39420 0.13550
C 6.0000000 3.80900 -0.19980 -0.88820
C 6.0000000 -2.54910 -1.44680 0.79390
C 6.0000000 -3.60140 -2.31960 0.58640
C 6.0000000 5.00840 0.77600 1.41140
C 6.0000000 3.77580 1.25930 1.01230
C 6.0000000 1.83440 1.30330 -0.56520
C 6.0000000 -0.60310 2.31400 -1.02230
C 6.0000000 -6.29150 1.41300 -0.71160
C 6.0000000 4.98850 -2.10110 -2.40630
H 1.0000000 6.80960 -1.44000 1.64040
H 1.0000000 -6.41600 -2.83500 0.72660
H 1.0000000 -1.92510 3.57480 -1.89630
C 6.0000000 -2.71520 -0.09330 0.56900
C 6.0000000 -4.99270 -0.47470 -0.07440
C 6.0000000 5.04390 -0.68830 -0.49400
C 6.0000000 -4.82540 -1.83780 0.15210
C 6.0000000 5.64640 -0.19810 0.66110
C 6.0000000 3.17760 0.77260 -0.13460
C 6.0000000 0.60980 0.74050 1.58410
O 8.0000000 6.85880 -0.67420 1.05190
O 8.0000000 -5.86120 -2.69490 -0.05300
O 8.0000000 -1.89020 2.68470 -1.52010
O 8.0000000 -6.19260 0.00310 -0.50040
O 8.0000000 5.66600 -1.64500 -1.23370
O 8.0000000 -0.75620 0.38640 1.88920
H 1.0000000 -1.94210 1.85240 1.01480
H 1.0000000 -1.02810 0.19640 -1.20840
H 1.0000000 0.89500 -0.60320 -0.12200
H 1.0000000 -4.06300 1.45290 -0.03530
H 1.0000000 1.30320 0.11430 2.14550
H 1.0000000 0.78870 1.79530 1.79270
H 1.0000000 1.75580 1.25480 -1.65130
H 1.0000000 1.73120 2.33830 -0.23930
H 1.0000000 3.34150 -0.57520 -1.78640
H 1.0000000 -1.59540 -1.82360 1.13290
H 1.0000000 -3.46890 -3.37680 0.76250
H 1.0000000 5.47390 1.15820 2.30790
H 1.0000000 3.27930 2.01850 1.59840
H 1.0000000 -0.30410 3.00730 -0.23620
H 1.0000000 0.12410 2.34900 -1.83350
H 1.0000000 -6.08270 1.93570 0.22180
H 1.0000000 -5.56920 1.71850 -1.46850
H 1.0000000 -7.29800 1.66010 -1.04920
H 1.0000000 4.02520 -2.52760 -2.12660
H 1.0000000 4.83140 -1.26250 -3.08460
H 1.0000000 5.59210 -2.86130 -2.90210
 $END
