 $BASIS GBASIS=N31 NGAUSS=6 NDFUNC=1 NPFUNC=1 $END
 $CONTRL SCFTYP=RHF RUNTYP=OPTIMIZE DFTTYP=B3LYP MAXIT=60 MULT=1 ICHARG=0 $END 
 $SYSTEM MEMDDI=1000 MWORDS=30 $END
 $STATPT NSTEP=999 $END
 $SCF DIRSCF=.TRUE. $END
 $DATA

C1
C 6.0000000 0.10190 0.09190 -1.78690
C 6.0000000 3.28320 1.06110 0.12760
C 6.0000000 4.53850 0.42150 -0.46900
C 6.0000000 -0.93350 -2.57030 -1.36740
C 6.0000000 -3.23330 2.28510 2.14540
C 6.0000000 -5.84630 -0.64030 0.51040
C 6.0000000 2.06020 2.11820 -1.92190
C 6.0000000 5.59730 -1.98530 0.54700
C 6.0000000 7.35330 -0.62830 1.92110
H 1.0000000 -1.65890 2.67590 -1.43030
H 1.0000000 -3.91910 -3.11610 -0.52780
C 6.0000000 -1.15400 -0.10790 -0.97830
C 6.0000000 -2.97340 0.80450 0.30140
C 6.0000000 -3.47290 -0.47590 0.50090
C 6.0000000 -1.81160 0.98690 -0.43990
C 6.0000000 -1.65140 -1.38280 -0.77970
C 6.0000000 -2.80930 -1.57040 -0.04150
O 8.0000000 -1.31970 2.24030 -0.63650
O 8.0000000 -3.29640 -2.82610 0.15280
C 6.0000000 2.17070 1.02690 -0.88850
C 6.0000000 6.17430 -0.66320 0.98320
O 8.0000000 -3.61980 1.87860 0.83110
O 8.0000000 -4.60970 -0.65870 1.22640
C 6.0000000 1.29970 0.04860 -0.87340
C 6.0000000 5.65100 0.45570 0.54700
H 1.0000000 0.18420 -0.69960 -2.53180
H 1.0000000 0.06160 1.05930 -2.28750
H 1.0000000 -0.12940 -2.87640 -0.69820
H 1.0000000 -1.63590 -3.39430 -1.49220
H 1.0000000 -0.51580 -2.29890 -2.33700
H 1.0000000 1.44000 -0.78910 -0.20630
H 1.0000000 -3.82450 3.14980 2.44680
H 1.0000000 -3.40480 1.46630 2.84410
H 1.0000000 -2.17580 2.54920 2.14780
H 1.0000000 -5.96590 0.32400 0.01660
H 1.0000000 -5.84510 -1.43360 -0.23720
H 1.0000000 -6.67100 -0.79740 1.20550
H 1.0000000 2.98060 0.50740 1.01640
H 1.0000000 3.49600 2.09520 0.39860
H 1.0000000 1.36060 2.87830 -1.57420
H 1.0000000 3.03950 2.57030 -2.07890
H 1.0000000 1.70070 1.69530 -2.85990
H 1.0000000 4.32570 -0.61260 -0.74000
H 1.0000000 4.84110 0.97520 -1.35780
H 1.0000000 6.01680 1.40270 0.91560
H 1.0000000 6.03070 -2.27250 -0.41100
H 1.0000000 5.82790 -2.74610 1.29270
H 1.0000000 4.51610 -1.89350 0.44380
H 1.0000000 7.62770 0.40740 2.12150
H 1.0000000 7.08830 -1.12140 2.85640
H 1.0000000 8.19680 -1.14570 1.46400
 $END
