 $BASIS GBASIS=N21 NGAUSS=3 $END
 $CONTRL SCFTYP=RHF DFTTYP=B3LYP MAXIT=60 MULT=1 ICHARG=0 $END
 $SYSTEM MEMDDI=1000 MWORDS=30 $END
 $SCF DIRSCF=.TRUE. $END
 $ELPOT  IEPOT=1 WHERE=PDC $END
 $PDC PTSEL=GEODESIC CONSTR=CHARGE $END
 $DATA

C1
C 6.0000000 3.81784 0.70969 1.19389
C 6.0000000 2.91050 -0.23443 0.93065
C 6.0000000 1.88590 -0.20083 -0.19090
O 8.0000000 1.87830 1.06962 -0.86006
C 6.0000000 2.28127 -1.22021 -1.27125
C 6.0000000 0.48482 -0.48957 0.41376
C 6.0000000 -0.68020 -0.52674 -0.59666
C 6.0000000 -2.01363 -0.71172 0.08121
C 6.0000000 -3.06727 0.12456 0.09925
C 6.0000000 -3.11251 1.47178 -0.58265
C 6.0000000 -4.34032 -0.24939 0.82397
H 1.0000000 3.90425 1.60580 0.58527
H 1.0000000 4.51568 0.60352 2.01931
H 1.0000000 2.87541 -1.12889 1.55352
H 1.0000000 1.67246 1.75581 -0.20909
H 1.0000000 2.29250 -2.23537 -0.86086
H 1.0000000 1.57867 -1.18732 -2.10812
H 1.0000000 3.27986 -0.98598 -1.64988
H 1.0000000 0.52609 -1.44120 0.96124
H 1.0000000 0.27801 0.28324 1.16773
H 1.0000000 -0.65895 0.38295 -1.20206
H 1.0000000 -0.52559 -1.36384 -1.29100
H 1.0000000 -2.12008 -1.65386 0.62359
H 1.0000000 -3.89624 1.49094 -1.35256
H 1.0000000 -3.36859 2.25841 0.14007
H 1.0000000 -2.16987 1.74731 -1.05967
H 1.0000000 -4.26146 -1.22572 1.31161
H 1.0000000 -4.59559 0.49597 1.58977
H 1.0000000 -5.19087 -0.28500 0.12882
 $END
