 $BASIS GBASIS=N21 NGAUSS=3 $END
 $CONTRL SCFTYP=RHF RUNTYP=OPTIMIZE DFTTYP=B3LYP MAXIT=60 MULT=1 ICHARG=0 $END 
 $SYSTEM MEMDDI=1000 MWORDS=30 $END
 $STATPT NSTEP=999 $END
 $SCF DIRSCF=.TRUE. $END
 $DATA

C1
C 6.0000000 1.10178 0.04208 0.41508
H 1.0000000 0.88453 -0.66161 1.22348
C 6.0000000 0.16968 -0.21768 -0.77936
C 6.0000000 -1.28436 -0.14559 -0.41380
C 6.0000000 -2.25033 0.71266 -0.88326
N 7.0000000 -3.41257 0.36495 -0.22036
C 6.0000000 -3.10212 -0.67327 0.61063
N 7.0000000 -1.83358 -1.00605 0.52127
H 1.0000000 0.37520 0.50130 -1.58165
H 1.0000000 0.38482 -1.21308 -1.18993
H 1.0000000 -2.22014 1.51242 -1.60746
H 1.0000000 -4.31709 0.79604 -0.33325
H 1.0000000 -3.83825 -1.14159 1.25040
H 1.0000000 2.15222 -0.07358 0.12725
H 1.0000000 0.96440 1.05555 0.80714
 $END
