 $BASIS GBASIS=N21 NGAUSS=3 $END
 $CONTRL SCFTYP=UHF MAXIT=60 MULT=2 ICHARG=-1 $END
 $SYSTEM MEMDDI=1000 MWORDS=30 $END
 $SCF DIRSCF=.TRUE. $END
 $STATPT OPTTOL=0.0001 NSTEP=999 $END
 $DATA

C1
C 6.0000000 1.0883272071 0.0146701698 0.4314499533
H 1.0000000 0.8059103419 -0.7156436338 1.1953689756
C 6.0000000 0.1840415912 -0.1842002008 -0.8101238022
C 6.0000000 -1.2685802949 -0.1237174832 -0.4375693807
C 6.0000000 -2.2615765661 0.6951787470 -0.9236374150
N 7.0000000 -3.4215719134 0.3525128992 -0.2247938092
C 6.0000000 -3.0825149569 -0.6561251146 0.6575563469
N 7.0000000 -1.7955122680 -0.9669974238 0.5572279049
H 1.0000000 0.4008350391 0.5774109742 -1.5685104774
H 1.0000000 0.4013933731 -1.1655879778 -1.2528055757
H 1.0000000 -2.2437621536 1.4623123178 -1.6771520676
H 1.0000000 -4.3344967221 0.7728978930 -0.3464847211
H 1.0000000 -3.7945407124 -1.1093352745 1.3258018791
H 1.0000000 2.1448931823 -0.1202639283 0.1740836384
H 1.0000000 0.9513448526 1.0194380359 0.8457685506
 $END
