 $BASIS GBASIS=N21 NGAUSS=3 $END
 $CONTRL SCFTYP=RHF DFTTYP=B3LYP MAXIT=60 MULT=1 ICHARG=0 $END
 $SYSTEM MEMDDI=1000 MWORDS=30 $END
 $SCF DIRSCF=.TRUE. $END
 $ELPOT  IEPOT=1 WHERE=PDC $END
 $PDC PTSEL=GEODESIC CONSTR=CHARGE $END
 $DATA

C1
C 6.0000000 0.7767980611 -0.8505569525 0.1157799613
H 1.0000000 2.1763385304 0.1666290447 -1.0132262392
H 1.0000000 2.1687773504 0.6027040257 0.5896494235
O 8.0000000 -0.3635853845 1.2147334737 -0.5742742848
O 8.0000000 -1.5964482003 -0.6231347693 0.0328925501
C 6.0000000 -0.4131489888 0.0536915965 -0.1866600690
H 1.0000000 -2.3573958933 -0.0116430178 -0.1773334832
N 7.0000000 2.0736802720 -0.1869882795 -0.0566071934
H 1.0000000 0.6749564472 -1.2192864961 1.1419967967
H 1.0000000 0.7133978059 -1.7258786254 -0.5404974620
 $END
