 $BASIS GBASIS=N21 NGAUSS=3 $END
 $CONTRL SCFTYP=RHF RUNTYP=OPTIMIZE DFTTYP=B3LYP MAXIT=60 MULT=1 ICHARG=0 $END 
 $SYSTEM MEMDDI=1000 MWORDS=30 $END
 $STATPT NSTEP=999 $END
 $SCF DIRSCF=.TRUE. $END
 $DATA

C1
C 6.0000000 0.76095 -0.79523 -0.01242
H 1.0000000 2.78963 -0.47738 -0.13188
H 1.0000000 1.87697 0.87435 -0.40682
O 8.0000000 -0.48290 1.25722 -0.35395
O 8.0000000 -1.60211 -0.62585 0.18689
C 6.0000000 -0.47413 0.07811 -0.07069
H 1.0000000 -2.35336 -0.01687 0.08278
N 7.0000000 1.95290 0.02412 0.14578
H 1.0000000 0.65544 -1.49259 0.82595
H 1.0000000 0.72998 -1.40561 -0.93392
 $END
