 $BASIS GBASIS=N21 NGAUSS=3 $END
 $CONTRL SCFTYP=UHF MAXIT=60 MULT=2 ICHARG=1 $END
 $SYSTEM MEMDDI=1000 MWORDS=30 $END
 $SCF DIRSCF=.TRUE. $END
 $STATPT OPTTOL=0.0001 NSTEP=999 $END
 $DATA

C1
O 8.0000000 -1.4277746328 2.5159749191 -0.2544729918
C 6.0000000 -0.8092194040 1.3389667406 0.2599963320
C 6.0000000 -1.6659253395 0.1796662270 -0.2278471025
H 1.0000000 -1.6783551369 0.2228485926 -1.3244358872
O 8.0000000 -3.0012969751 0.2167498462 0.3472101498
C 6.0000000 -1.0376910996 -1.1191278810 0.2311964745
H 1.0000000 -1.0086591334 -1.1264109088 1.3314581623
O 8.0000000 -1.7454155926 -2.2825278787 -0.2830739300
C 6.0000000 0.3873307443 -1.2192160160 -0.2952159139
H 1.0000000 0.3471422729 -1.2049572623 -1.3942154622
O 8.0000000 1.0246908871 -2.4185424665 0.2177087048
C 6.0000000 1.1920915714 -0.0113095556 0.1957867842
H 1.0000000 1.2344128506 -0.0308788754 1.2928714941
O 8.0000000 0.5294829356 1.2139532658 -0.2866931487
C 6.0000000 2.6117834271 -0.0236451456 -0.3363515157
O 8.0000000 3.3598384995 0.9501677139 0.4516835264
H 1.0000000 -0.7682307972 1.3295822841 1.3626133907
H 1.0000000 -3.3669253864 1.1166886180 0.1261434680
H 1.0000000 -2.7050241470 -2.1350774617 -0.0585558438
H 1.0000000 0.3489956807 -3.1414879189 0.0851732569
H 1.0000000 2.9882043388 -1.0486867194 -0.2175952105
H 1.0000000 2.5755250319 0.2314098000 -1.4053726006
H 1.0000000 4.2975419543 0.9470857283 0.1199745021
H 1.0000000 -0.8581728496 3.2976244542 -0.0221566391
 $END
