 $BASIS GBASIS=N21 NGAUSS=3 $END
 $CONTRL SCFTYP=RHF RUNTYP=OPTIMIZE DFTTYP=B3LYP MAXIT=60 MULT=1 ICHARG=0 $END 
 $SYSTEM MEMDDI=1000 MWORDS=30 $END
 $STATPT NSTEP=999 $END
 $SCF DIRSCF=.TRUE. $END
 $DATA

C1
O 8.0000000 -1.32239710 2.53116060 -0.24179340
C 6.0000000 -0.78324420 1.33901410 0.25204760
C 6.0000000 -1.68772440 0.19578070 -0.21349060
H 1.0000000 -1.75530420 0.24865420 -1.30961900
O 8.0000000 -2.98467280 0.25621000 0.37499660
C 6.0000000 -1.06876370 -1.13449350 0.20235130
H 1.0000000 -1.07504050 -1.19227790 1.30259810
O 8.0000000 -1.77610560 -2.24876470 -0.33848850
C 6.0000000 0.38075510 -1.24574760 -0.27453170
H 1.0000000 0.38579530 -1.27969400 -1.37547560
O 8.0000000 0.99744210 -2.41246870 0.25736230
C 6.0000000 1.17564740 -0.01375580 0.19279440
H 1.0000000 1.21083180 -0.00531520 1.29398010
O 8.0000000 0.51881080 1.16870160 -0.28460200
C 6.0000000 2.60203730 -0.00384510 -0.32555430
O 8.0000000 3.33200760 0.98531970 0.40096200
H 1.0000000 -0.72455250 1.35823380 1.35527360
H 1.0000000 -3.40204240 1.08588290 0.10383070
H 1.0000000 -2.70268630 -2.17278130 -0.06883720
H 1.0000000 0.40167690 -3.15691410 0.08698000
H 1.0000000 3.02854540 -1.00298170 -0.17409220
H 1.0000000 2.58741450 0.22420830 -1.40129360
H 1.0000000 4.23915740 1.00899220 0.07229630
H 1.0000000 -0.75323820 3.26573160 0.02813510
 $END
