 $BASIS GBASIS=N21 NGAUSS=3 $END
 $CONTRL SCFTYP=RHF DFTTYP=B3LYP MAXIT=60 MULT=1 ICHARG=0 $END
 $SYSTEM MEMDDI=1000 MWORDS=30 $END
 $SCF DIRSCF=.TRUE. $END
 $ELPOT  IEPOT=1 WHERE=PDC $END
 $PDC PTSEL=CHELPG CONSTR=CHARGE $END
 $DATA

C1
C 6.0000000 2.36181 1.91040 -0.04372
C 6.0000000 4.42751 -0.67893 -0.43702
C 6.0000000 3.05140 -1.07807 1.50515
C 6.0000000 3.18625 -2.45809 1.31758
C 6.0000000 -4.60906 0.08810 -0.97792
C 6.0000000 -3.73916 -0.40669 1.22322
C 6.0000000 -4.95866 -0.97425 1.57918
C 6.0000000 3.50400 1.31897 0.80912
H 1.0000000 5.29804 -3.48312 -1.66389
H 1.0000000 3.66062 -4.83411 0.60945
H 1.0000000 -6.72742 -0.18379 -2.32052
H 1.0000000 -7.80739 -1.52718 0.26517
C 6.0000000 3.66738 -0.17602 0.63007
C 6.0000000 4.56465 -2.05091 -0.63234
C 6.0000000 3.93771 -2.94362 0.25234
C 6.0000000 -3.53651 0.13353 -0.06208
C 6.0000000 -5.82492 -0.48025 -0.62367
C 6.0000000 -6.01028 -1.01900 0.66085
O 8.0000000 1.52919 4.07410 0.73285
O 8.0000000 0.13411 1.93975 -1.52363
O 8.0000000 5.31206 -2.51401 -1.67791
O 8.0000000 4.13795 -4.28171 -0.02235
O 8.0000000 3.33057 3.99484 -0.62741
O 8.0000000 -6.91984 -0.56998 -1.45655
O 8.0000000 -7.19773 -1.57902 1.01781
C 6.0000000 2.31829 3.43368 0.07883
C 6.0000000 0.06512 1.43180 -0.41781
O 8.0000000 1.13578 1.35384 0.42826
H 1.0000000 3.27081 4.95754 -0.50304
C 6.0000000 -2.27648 0.72860 -0.49799
C 6.0000000 -1.11980 0.81022 0.19158
H 1.0000000 2.49886 1.65998 -1.09980
H 1.0000000 4.42650 1.83596 0.52489
H 1.0000000 3.30392 1.55676 1.85982
H 1.0000000 4.92596 -0.00972 -1.13319
H 1.0000000 2.45650 -0.70636 2.33357
H 1.0000000 2.70610 -3.15394 2.00268
H 1.0000000 -4.47902 0.50124 -1.97651
H 1.0000000 -2.26934 1.14769 -1.50368
H 1.0000000 -2.93995 -0.37991 1.95621
H 1.0000000 -1.00046 0.42298 1.19760
H 1.0000000 -5.11779 -1.38918 2.56937
 $END
