 $BASIS GBASIS=N21 NGAUSS=3 $END
 $CONTRL SCFTYP=UHF MAXIT=60 MULT=2 ICHARG=-1 $END
 $SYSTEM MEMDDI=1000 MWORDS=30 $END
 $SCF DIRSCF=.TRUE. $END
 $STATPT OPTTOL=0.0001 NSTEP=999 $END
 $DATA

C1
C 6.0000000 -1.13361 0.32570 -0.02502
C 6.0000000 -1.74998 -0.94292 -0.04536
O 8.0000000 -3.09732 -1.05307 -0.24638
C 6.0000000 -0.97559 -2.08100 0.14013
C 6.0000000 0.40544 -1.96304 0.34556
C 6.0000000 1.02765 -0.71292 0.36921
C 6.0000000 2.52567 -0.57889 0.60372
C 6.0000000 3.25071 0.12404 -0.51775
C 6.0000000 3.99711 1.22466 -0.37992
C 6.0000000 0.23912 0.43767 0.17693
O 8.0000000 -2.00736 1.37149 -0.22063
C 6.0000000 -1.49346 2.69913 -0.20430
H 1.0000000 -3.45815 -0.15898 -0.35099
H 1.0000000 -1.46083 -3.05190 0.12244
H 1.0000000 0.99800 -2.86242 0.49176
H 1.0000000 2.71610 -0.04401 1.54410
H 1.0000000 2.94544 -1.58622 0.72694
H 1.0000000 3.13518 -0.32129 -1.50695
H 1.0000000 4.13474 1.70220 0.58855
H 1.0000000 4.50102 1.68135 -1.22740
H 1.0000000 0.71545 1.41238 0.18019
H 1.0000000 -0.75324 2.84588 -1.00018
H 1.0000000 -2.34906 3.35397 -0.37550
H 1.0000000 -1.03999 2.93395 0.76655
 $END
