 $BASIS GBASIS=N21 NGAUSS=3 $END
 $CONTRL SCFTYP=RHF MAXIT=60 MULT=1 ICHARG=0 $END
 $SYSTEM MEMDDI=1000 MWORDS=30 $END
 $SCF DIRSCF=.TRUE. $END
 $DATA

C1
N 7.0000000 -1.6337498954 1.0595747079 0.3522468567
C 6.0000000 -0.8020074463 -0.1426317415 0.4463194829
H 1.0000000 -0.7516357937 -0.5200463610 1.4755107676
C 6.0000000 -1.2466944124 -1.3145828814 -0.4775812992
C 6.0000000 0.6082050378 0.2483695868 0.0427726800
O 8.0000000 0.9440598083 1.2847898188 -0.5203907654
O 8.0000000 1.4920138520 -0.7638882782 0.3507298208
H 1.0000000 -1.2359947388 1.7311506362 -0.3079320776
H 1.0000000 -2.6181719387 0.8629467947 0.1746305891
H 1.0000000 -1.2668712242 -0.9731674330 -1.5184465716
H 1.0000000 -0.5541961611 -2.1554884005 -0.3824671699
H 1.0000000 -2.2526667046 -1.6445640199 -0.1954699515
H 1.0000000 2.4010096169 -0.4966324289 0.0381276380
 $END
