 $BASIS GBASIS=N31 NGAUSS=6 NDFUNC=1 NPFUNC=1 $END
 $CONTRL SCFTYP=RHF RUNTYP=OPTIMIZE DFTTYP=B3LYP MAXIT=60 MULT=1 ICHARG=0 $END 
 $SYSTEM MEMDDI=1000 MWORDS=30 $END
 $STATPT NSTEP=999 $END
 $SCF DIRSCF=.TRUE. $END
 $DATA

C1
C 6.0000000 -11.43910 -0.30800 -0.27130
C 6.0000000 -14.34780 0.11240 0.19730
C 6.0000000 14.06770 0.99200 0.32780
C 6.0000000 10.55700 2.10340 -0.86220
C 6.0000000 -11.47510 -1.88210 1.76950
C 6.0000000 13.17260 -1.73010 -0.64730
C 6.0000000 11.82380 -1.91060 1.44390
C 6.0000000 -12.24570 2.01290 0.19710
C 6.0000000 -11.55800 1.36970 -2.12280
C 6.0000000 7.80540 -1.53800 -1.60200
C 6.0000000 -7.68990 1.16360 1.36900
C 6.0000000 -2.90000 1.10340 1.31080
C 6.0000000 3.00530 -1.46960 -1.53480
H 1.0000000 -16.09410 -0.75980 0.73670
H 1.0000000 15.54400 2.37520 0.42000
C 6.0000000 12.93170 2.00000 0.14220
C 6.0000000 13.57160 -0.13980 1.23570
C 6.0000000 -13.65390 0.42370 -1.13080
O 8.0000000 -15.59250 -0.54050 -0.06040
O 8.0000000 15.18830 1.63810 0.93510
C 6.0000000 7.84480 -0.52970 -0.48270
C 6.0000000 -7.72930 0.15540 0.24970
C 6.0000000 3.04470 -0.46140 -0.41550
C 6.0000000 -2.93940 0.09520 0.19150
C 6.0000000 11.48110 -0.01040 -0.10150
C 6.0000000 11.67050 1.28950 -0.25490
C 6.0000000 -12.21550 -0.96070 0.83460
C 6.0000000 10.23900 -0.55810 -0.50990
C 6.0000000 -10.11470 0.17220 0.26400
C 6.0000000 9.08020 -0.08180 0.01670
C 6.0000000 -8.97510 -0.29630 -0.25390
C 6.0000000 5.44910 -0.49790 -0.45170
C 6.0000000 -5.33510 0.12690 0.22250
C 6.0000000 -6.57050 -0.32090 -0.27690
C 6.0000000 6.68100 -0.05130 0.04630
C 6.0000000 -4.17130 -0.35140 -0.30650
C 6.0000000 4.27510 -0.01530 0.08190
C 6.0000000 -1.76540 -0.38740 -0.34210
C 6.0000000 1.86980 0.02160 0.11850
C 6.0000000 0.63990 -0.42430 -0.37870
C 6.0000000 -0.53500 0.05860 0.15530
C 6.0000000 -13.48160 -0.78130 1.03580
C 6.0000000 12.50740 -0.93850 0.48030
C 6.0000000 -12.22060 0.88180 -0.83290
H 1.0000000 -11.26590 -1.03210 -1.06740
H 1.0000000 10.21360 -1.35390 -1.23960
H 1.0000000 -10.08650 0.89470 1.06620
H 1.0000000 -13.94310 -1.30730 1.85840
H 1.0000000 9.10850 0.64080 0.81890
H 1.0000000 -9.00340 -1.01880 -1.05610
H 1.0000000 12.76620 2.53430 1.07770
H 1.0000000 13.20490 2.71320 -0.63550
H 1.0000000 14.40460 -0.79330 1.49470
H 1.0000000 13.13790 0.28200 2.14240
H 1.0000000 -13.63070 -0.47190 -1.75160
H 1.0000000 -14.19230 1.21790 -1.64790
H 1.0000000 5.42090 -1.22050 -1.25390
H 1.0000000 -5.30680 0.84950 1.02460
H 1.0000000 -14.53230 1.04320 0.73350
H 1.0000000 -6.59880 -1.04350 -1.07910
H 1.0000000 6.70920 0.67130 0.84840
H 1.0000000 -4.19950 -1.07400 -1.10860
H 1.0000000 4.30330 0.70730 0.88400
H 1.0000000 -1.79360 -1.11000 -1.14420
H 1.0000000 1.89810 0.74420 0.92070
H 1.0000000 14.35960 0.58680 -0.64110
H 1.0000000 0.61160 -1.14690 -1.18090
H 1.0000000 -0.50680 0.78120 0.95740
H 1.0000000 9.84930 2.38880 -0.08390
H 1.0000000 10.97180 3.00010 -1.32260
H 1.0000000 10.04450 1.51000 -1.61940
H 1.0000000 -11.08630 -1.30950 2.61150
H 1.0000000 -12.15510 -2.65100 2.13600
H 1.0000000 -10.64820 -2.35210 1.23700
H 1.0000000 13.65580 -1.04040 -1.33940
H 1.0000000 13.91830 -2.40480 -0.22680
H 1.0000000 12.41770 -2.30910 -1.17920
H 1.0000000 11.13860 -2.55110 0.88860
H 1.0000000 12.57780 -2.52530 1.93570
H 1.0000000 11.26800 -1.34810 2.19410
H 1.0000000 -11.22510 2.32350 0.42070
H 1.0000000 -12.80290 2.85870 -0.20570
H 1.0000000 -12.72710 1.66240 1.11010
H 1.0000000 -11.55140 0.56270 -2.85560
H 1.0000000 -12.11670 2.21690 -2.52030
H 1.0000000 -10.53370 1.67680 -1.91150
H 1.0000000 7.79460 -2.54460 -1.18400
H 1.0000000 6.90680 -1.38290 -2.19920
H 1.0000000 8.68620 -1.41570 -2.23230
H 1.0000000 -7.68160 0.64320 2.32670
H 1.0000000 -6.79010 1.77210 1.27840
H 1.0000000 -8.56940 1.80490 1.31160
H 1.0000000 -2.88920 2.11010 0.89290
H 1.0000000 -3.78080 0.98110 1.94120
H 1.0000000 -2.00140 0.94840 1.90800
H 1.0000000 2.99460 -2.47630 -1.11680
H 1.0000000 2.10670 -1.31460 -2.13200
H 1.0000000 3.88610 -1.34730 -2.16510
 $END
