 $BASIS GBASIS=N31 NGAUSS=6 NDFUNC=1 NPFUNC=1 $END
 $CONTRL SCFTYP=RHF RUNTYP=OPTIMIZE DFTTYP=B3LYP MAXIT=60 MULT=1 ICHARG=0 $END 
 $SYSTEM MEMDDI=1000 MWORDS=30 $END
 $STATPT NSTEP=999 $END
 $SCF DIRSCF=.TRUE. $END
 $DATA

C1
C 6.0000000 -2.93690 0.00970 -0.92520
C 6.0000000 2.80460 -1.58340 -0.19200
O 8.0000000 -0.77070 2.39110 0.66260
C 6.0000000 -0.23100 -2.10640 0.18880
C 6.0000000 -1.74300 -1.79210 0.39230
C 6.0000000 -1.90280 -0.26330 0.16900
C 6.0000000 -0.06450 1.57940 0.11260
C 6.0000000 1.79220 -0.48010 -0.02200
O 8.0000000 1.23680 1.82060 -0.21870
C 6.0000000 2.09080 0.77590 -0.31800
C 6.0000000 -0.53040 0.21150 -0.27130
C 6.0000000 0.42430 -0.76300 0.48320
H 1.0000000 -0.42180 0.07400 -1.34710
H 1.0000000 0.37990 -0.56420 1.55400
H 1.0000000 -2.19380 0.22730 1.09780
H 1.0000000 0.10570 -2.86490 0.89550
H 1.0000000 -0.03440 -2.41680 -0.83740
H 1.0000000 -2.34100 -2.34140 -0.33490
H 1.0000000 -2.04760 -2.05660 1.40490
H 1.0000000 3.09250 0.98190 -0.66500
H 1.0000000 -2.65240 -0.52020 -1.83430
H 1.0000000 -3.91600 -0.33650 -0.59420
H 1.0000000 -2.97890 1.08010 -1.12650
H 1.0000000 2.72380 -1.99900 -1.19650
H 1.0000000 3.80730 -1.18240 -0.04430
H 1.0000000 2.61480 -2.36690 0.54160
 $END
