 $BASIS GBASIS=N31 NGAUSS=6 NDFUNC=1 NPFUNC=1 $END
 $CONTRL SCFTYP=RHF RUNTYP=OPTIMIZE DFTTYP=B3LYP MAXIT=60 MULT=1 ICHARG=0 $END 
 $SYSTEM MEMDDI=1000 MWORDS=30 $END
 $STATPT NSTEP=999 $END
 $SCF DIRSCF=.TRUE. $END
 $DATA

C1
C 6.0000000 -0.21730 3.20740 -0.90220
C 6.0000000 3.75550 -1.38990 -0.60790
C 6.0000000 -3.00420 -2.27750 0.47200
O 8.0000000 3.73960 1.18510 1.05350
O 8.0000000 -3.80240 0.41970 0.84710
C 6.0000000 0.55330 -2.30380 0.06650
C 6.0000000 -0.71390 -2.43420 -0.79030
C 6.0000000 2.67110 -0.88270 0.34490
C 6.0000000 -1.02740 1.99950 -0.50770
C 6.0000000 -2.73840 0.69000 0.32210
C 6.0000000 2.79650 0.62240 0.54980
C 6.0000000 -1.81950 -1.59700 -0.16400
O 8.0000000 1.67770 1.22940 0.07620
C 6.0000000 -2.21680 2.03890 0.07240
C 6.0000000 -0.60300 0.56670 -0.71650
C 6.0000000 0.60430 0.25090 0.15430
C 6.0000000 1.27810 -1.03840 -0.28680
C 6.0000000 -1.74830 -0.27710 -0.17370
H 1.0000000 -0.40570 0.34520 -1.76530
H 1.0000000 0.28660 0.14130 1.19130
H 1.0000000 1.40300 -1.00400 -1.36900
H 1.0000000 -2.73740 2.94930 0.33020
H 1.0000000 2.72190 -1.40870 1.29820
H 1.0000000 0.27710 -2.28100 1.12070
H 1.0000000 1.20470 -3.15810 -0.11790
H 1.0000000 -0.51080 -2.07490 -1.79910
H 1.0000000 -1.02370 -3.47860 -0.82820
H 1.0000000 -0.47300 3.49960 -1.92070
H 1.0000000 -0.43720 4.03030 -0.22210
H 1.0000000 0.84430 2.96610 -0.84920
H 1.0000000 3.72230 -0.81660 -1.53430
H 1.0000000 4.73350 -1.27070 -0.14160
H 1.0000000 3.58320 -2.44380 -0.82640
H 1.0000000 -3.78470 -2.42160 -0.27510
H 1.0000000 -2.69750 -3.24550 0.86830
H 1.0000000 -3.38710 -1.65780 1.28270
 $END
