 $BASIS GBASIS=N21 NGAUSS=3 $END
 $CONTRL SCFTYP=RHF DFTTYP=B3LYP MAXIT=60 MULT=1 ICHARG=0 $END
 $SYSTEM MEMDDI=1000 MWORDS=30 $END
 $SCF DIRSCF=.TRUE. $END
 $ELPOT  IEPOT=1 WHERE=PDC $END
 $PDC PTSEL=GEODESIC CONSTR=CHARGE $END
 $DATA

C1
C 6.0000000 -1.1643458059 -0.1553331129 -0.8332757490
C 6.0000000 -1.4865794282 -1.0921361618 0.3605630951
C 6.0000000 -3.0030690180 -1.2859577830 0.1814425583
C 6.0000000 -3.4796836325 0.0926767330 -0.2932772047
C 6.0000000 0.1050475984 2.0892656550 -0.6804816691
C 6.0000000 -3.8922470037 1.0120914748 0.8526413872
H 1.0000000 -1.3440426440 -2.8908757757 -0.3579682166
H 1.0000000 -3.9559324139 -2.5579532966 -1.0991488750
H 1.0000000 -4.5289771997 2.9122969220 0.8515948218
H 1.0000000 0.9513509542 -1.8062581802 0.0433683618
H 1.0000000 2.8471454622 -3.2884676531 0.3082351548
H 1.0000000 4.4149676648 -2.6134853660 0.7002173473
O 8.0000000 4.3341140298 2.0630474227 0.2810483258
O 8.0000000 -0.7757312037 -2.3556992058 0.2772216023
O 8.0000000 -3.0242684990 -2.2876872200 -0.8928783349
O 8.0000000 -4.5320931444 2.1499768729 0.2140021198
C 6.0000000 3.5018872993 1.1595575254 0.1577113858
C 6.0000000 3.0230392458 -1.1982723528 0.2567536516
C 6.0000000 1.2634791743 0.2323164228 -0.2639484926
C 6.0000000 2.0889753053 1.3374161672 -0.1794870018
O 8.0000000 -2.3205993378 0.7075288172 -0.9965444913
N 7.0000000 3.4357840439 -2.4851983990 0.4807271810
N 7.0000000 1.3374094003 2.4950654681 -0.4453929875
N 7.0000000 1.6600273686 -1.0619764304 -0.0505511954
N 7.0000000 3.8642702978 -0.2128991939 0.3403063639
N 7.0000000 -0.0014764856 0.6809848578 -0.5759349684
H 1.0000000 -1.0095180592 -0.7727508533 -1.7257994521
H 1.0000000 -1.2422786054 -0.6018004165 1.3031502426
H 1.0000000 -3.5125551570 -1.6389842861 1.0840114981
H 1.0000000 -4.3093299229 0.0223990033 -1.0022834934
H 1.0000000 -0.7546818422 2.6832591913 -0.9270329681
H 1.0000000 -4.5792154714 0.4757820912 1.5273630578
H 1.0000000 -2.9892529702 1.2850810623 1.4151169446
 $END
