 $BASIS GBASIS=N21 NGAUSS=3 $END
 $CONTRL SCFTYP=RHF RUNTYP=OPTIMIZE DFTTYP=B3LYP MAXIT=60 MULT=1 ICHARG=0 $END 
 $SYSTEM MEMDDI=1000 MWORDS=30 $END
 $STATPT NSTEP=999 $END
 $SCF DIRSCF=.TRUE. $END
 $DATA

C1
C 6.0000000 -1.17930 -0.29647 -0.83226
C 6.0000000 -1.57420 -1.19751 0.36942
C 6.0000000 -3.09761 -1.30050 0.19584
C 6.0000000 -3.44850 0.08257 -0.37392
C 6.0000000 -0.02563 1.98303 -0.50109
C 6.0000000 -3.75638 1.12930 0.69577
H 1.0000000 -1.41297 -3.02253 -0.20598
H 1.0000000 -4.22047 -2.54119 -0.85091
H 1.0000000 -4.09998 3.04858 0.67162
H 1.0000000 1.09679 -1.86324 0.06846
H 1.0000000 3.21515 -3.12800 -0.26648
H 1.0000000 4.55153 -2.43520 0.50225
O 8.0000000 4.13657 2.14969 0.53886
O 8.0000000 -0.90609 -2.44082 0.38600
O 8.0000000 -3.27937 -2.34960 -0.75238
O 8.0000000 -4.08050 2.33202 0.02492
C 6.0000000 3.38548 1.21588 0.31580
C 6.0000000 3.06982 -1.14416 0.20322
C 6.0000000 1.21723 0.19544 -0.22471
C 6.0000000 1.96569 1.33723 -0.03847
O 8.0000000 -2.30707 0.47724 -1.16054
N 7.0000000 3.54562 -2.43256 0.39095
N 7.0000000 1.16150 2.45082 -0.21554
N 7.0000000 1.72000 -1.08461 -0.13448
N 7.0000000 3.85079 -0.12731 0.37355
N 7.0000000 -0.06056 0.58677 -0.52258
H 1.0000000 -0.89219 -0.92895 -1.68567
H 1.0000000 -1.33136 -0.68049 1.30243
H 1.0000000 -3.61887 -1.51882 1.13662
H 1.0000000 -4.30225 0.02700 -1.05939
H 1.0000000 -0.91968 2.55165 -0.70882
H 1.0000000 -4.59638 0.76412 1.31168
H 1.0000000 -2.88519 1.25363 1.35730
 $END
