 $BASIS GBASIS=N21 NGAUSS=3 $END
 $CONTRL SCFTYP=RHF RUNTYP=OPTIMIZE DFTTYP=B3LYP MAXIT=60 MULT=1 ICHARG=0 $END 
 $SYSTEM MEMDDI=1000 MWORDS=30 $END
 $STATPT NSTEP=999 $END
 $SCF DIRSCF=.TRUE. $END
 $DATA

C1
C 6.0000000 1.22997 0.39959 0.48640
H 1.0000000 1.23307 0.25233 1.57253
C 6.0000000 0.02090 -0.28072 -0.16552
C 6.0000000 -1.30730 0.26950 0.36161
S 16.0000000 -2.72285 -0.57408 -0.45238
C 6.0000000 -4.10990 0.28515 0.36808
H 1.0000000 0.06119 -0.14531 -1.25328
H 1.0000000 0.06104 -1.36181 0.01513
H 1.0000000 -1.37899 0.11683 1.44523
H 1.0000000 -1.37696 1.34645 0.16717
H 1.0000000 -4.09783 0.11777 1.44901
H 1.0000000 -4.09024 1.35915 0.16181
H 1.0000000 -5.03194 -0.13391 -0.04132
H 1.0000000 2.16763 -0.00667 0.09364
H 1.0000000 1.23036 1.47917 0.29738
 $END
