 $BASIS GBASIS=N31 NGAUSS=6 NDFUNC=1 NPFUNC=1 $END
 $CONTRL SCFTYP=RHF RUNTYP=OPTIMIZE DFTTYP=B3LYP MAXIT=60 MULT=1 ICHARG=0 $END 
 $SYSTEM MEMDDI=1000 MWORDS=30 $END
 $STATPT NSTEP=999 $END
 $SCF DIRSCF=.TRUE. $END
 $DATA

C1
C 6.0000000 1.96010 -0.71720 -0.47350
C 6.0000000 0.51230 -0.81060 -0.03590
C 6.0000000 2.53880 0.55950 0.19820
C 6.0000000 -0.21590 0.40120 -0.63170
C 6.0000000 -2.43420 1.48400 -0.38290
C 6.0000000 -3.66430 -0.90790 0.21600
C 6.0000000 -3.78930 1.46030 -0.13110
C 6.0000000 2.20110 0.54220 1.69030
H 1.0000000 -5.97950 0.34460 1.34460
C 6.0000000 -4.41100 0.25640 0.16860
O 8.0000000 4.83790 1.28710 -0.06980
C 6.0000000 2.89810 -1.79420 0.08630
C 6.0000000 -0.16190 -2.07330 -0.57290
C 6.0000000 1.89270 1.76610 -0.44830
C 6.0000000 4.28540 -1.09850 0.02480
C 6.0000000 0.38430 1.71020 -0.13970
C 6.0000000 -1.54670 -2.18360 0.06370
O 8.0000000 -5.74720 0.22090 0.41410
C 6.0000000 4.02080 0.40390 0.03380
C 6.0000000 -1.68570 0.31540 -0.33840
C 6.0000000 -2.29830 -0.88200 -0.03200
H 1.0000000 2.03260 -0.65440 -1.55930
H 1.0000000 0.45340 -0.77780 1.05200
H 1.0000000 -0.08720 0.37140 -1.71370
H 1.0000000 2.63410 -2.04070 1.11470
H 1.0000000 2.88360 -2.68470 -0.54220
H 1.0000000 -0.25970 -2.00540 -1.65640
H 1.0000000 0.43380 -2.94780 -0.31110
H 1.0000000 2.32070 2.67990 -0.03590
H 1.0000000 2.05070 1.73690 -1.52640
H 1.0000000 2.55800 -0.38770 2.13290
H 1.0000000 2.68350 1.38710 2.18180
H 1.0000000 1.12120 0.61500 1.81930
H 1.0000000 4.88190 -1.37770 0.89330
H 1.0000000 4.80430 -1.38070 -0.89130
H 1.0000000 -0.11490 2.54290 -0.63520
H 1.0000000 0.23460 1.79180 0.93690
H 1.0000000 -2.11370 -2.96150 -0.44770
H 1.0000000 -1.43630 -2.45550 1.11340
H 1.0000000 -1.95010 2.42050 -0.61730
H 1.0000000 -4.14830 -1.84500 0.44830
H 1.0000000 -4.36400 2.37390 -0.16680
 $END
