 $BASIS GBASIS=N21 NGAUSS=3 $END
 $CONTRL SCFTYP=RHF MAXIT=60 MULT=1 ICHARG=0 $END
 $SYSTEM MEMDDI=1000 MWORDS=30 $END
 $SCF DIRSCF=.TRUE. $END
 $DATA

C1
O 8.0000000 -1.5976876900 1.4130912235 0.5648238465
H 1.0000000 -0.8813445367 0.7216253439 0.6167303759
H 1.0000000 -1.8484077733 1.5703434326 1.5168557775
 $END
