 $BASIS GBASIS=N21 NGAUSS=3 $END
 $CONTRL SCFTYP=RHF RUNTYP=OPTIMIZE DFTTYP=B3LYP MAXIT=60 MULT=1 ICHARG=0 $END 
 $SYSTEM MEMDDI=1000 MWORDS=30 $END
 $STATPT NSTEP=999 $END
 $SCF DIRSCF=.TRUE. $END
 $DATA

C1
O 8.0000000 -1.59312 1.40785 0.57468
H 1.0000000 -0.89946 0.73814 0.62654
H 1.0000000 -1.83486 1.55907 1.49719
 $END
