 $BASIS GBASIS=N21 NGAUSS=3 $END
 $CONTRL SCFTYP=RHF MAXIT=60 MULT=1 ICHARG=1 $END
 $SYSTEM MEMDDI=1000 MWORDS=30 $END
 $SCF DIRSCF=.TRUE. $END
 $DATA

C1
C 6.0000000 1.4302548261 0.3465941159 0.4864169698
H 1.0000000 1.4274969012 0.1269457544 1.5600891405
C 6.0000000 0.1946842985 -0.2702266925 -0.2033685064
C 6.0000000 -1.1226340326 0.2845924342 0.3879248189
C 6.0000000 -2.3653644185 -0.3381220063 -0.3041232568
C 6.0000000 -3.6505743017 0.2300821800 0.3020105082
N 7.0000000 -4.9055442154 -0.4033282294 -0.3955462017
H 1.0000000 0.2266070533 -0.0554917720 -1.2793869893
H 1.0000000 0.2123994890 -1.3614872991 -0.0840426590
H 1.0000000 -1.1551902733 0.0682582759 1.4636946693
H 1.0000000 -1.1426074255 1.3754204585 0.2641513706
H 1.0000000 -2.3245535679 -0.1157130838 -1.3786374727
H 1.0000000 -2.3368678058 -1.4282018417 -0.1732325174
H 1.0000000 -3.7494021656 -0.0092730957 1.3629788190
H 1.0000000 -3.7394443179 1.3077444403 0.1483328381
H 1.0000000 -4.8959109311 -1.4307782086 -0.2677967092
H 1.0000000 -5.7868391912 -0.0268782456 -0.0041316680
H 1.0000000 2.3511909737 -0.0612426536 0.0581417834
H 1.0000000 1.4466833811 1.4346548756 0.3552893150
H 1.0000000 -4.8797042763 -0.2044794066 -1.4112242522
 $END
