 $BASIS GBASIS=N21 NGAUSS=3 $END
 $CONTRL SCFTYP=RHF RUNTYP=OPTIMIZE DFTTYP=B3LYP MAXIT=60 MULT=1 ICHARG=1 $END 
 $SYSTEM MEMDDI=1000 MWORDS=30 $END
 $STATPT NSTEP=999 $END
 $SCF DIRSCF=.TRUE. $END
 $DATA

C1
C 6.0000000 1.12186 0.01053 0.41888
H 1.0000000 0.98189 -0.74792 1.19676
C 6.0000000 0.18665 -0.21598 -0.78424
C 6.0000000 -1.26833 -0.12956 -0.44156
C 6.0000000 -2.26143 0.70073 -0.88627
N 7.0000000 -3.42568 0.34241 -0.22755
C 6.0000000 -3.18165 -0.67236 0.60270
N 7.0000000 -1.88312 -0.96839 0.48498
H 1.0000000 0.38510 0.52801 -1.56109
H 1.0000000 0.38696 -1.19461 -1.23878
H 1.0000000 -2.23410 1.50225 -1.60719
H 1.0000000 -4.33206 0.77865 -0.34982
H 1.0000000 -3.89635 -1.16173 1.24668
H 1.0000000 2.16180 -0.05031 0.09038
H 1.0000000 0.96178 0.99458 0.86735
H 1.0000000 -1.41705 -1.70158 1.00650
 $END
