 $BASIS GBASIS=N21 NGAUSS=3 $END
 $CONTRL SCFTYP=RHF MAXIT=60 MULT=1 ICHARG=1 $END
 $SYSTEM MEMDDI=1000 MWORDS=30 $END
 $SCF DIRSCF=.TRUE. $END
 $DATA

C1
C 6.0000000 1.1119728886 0.0185960898 0.4225240780
H 1.0000000 0.9609576308 -0.7442144843 1.1945474013
C 6.0000000 0.1899672159 -0.2241074343 -0.8040935694
C 6.0000000 -1.2638048138 -0.1397502759 -0.4526865600
C 6.0000000 -2.2507902475 0.7036177816 -0.8885943770
N 7.0000000 -3.4265162192 0.3510686776 -0.2156318697
C 6.0000000 -3.1873698216 -0.6772500771 0.6161991018
N 7.0000000 -1.8821626799 -0.9857236937 0.4847368982
H 1.0000000 0.3938420190 0.5246645861 -1.5754974671
H 1.0000000 0.4016340277 -1.2077842947 -1.2432003925
H 1.0000000 -2.2093711890 1.5024314598 -1.6058103210
H 1.0000000 -4.3289927413 0.8051850220 -0.3372796912
H 1.0000000 -3.8992682954 -1.1604736288 1.2612411822
H 1.0000000 2.1577702782 -0.0291077350 0.1067159614
H 1.0000000 0.9247636641 1.0037556865 0.8590231659
H 1.0000000 -1.4063617165 -1.7261876795 0.9955364592
 $END
