 $BASIS GBASIS=N21 NGAUSS=3 $END
 $CONTRL SCFTYP=RHF DFTTYP=B3LYP MAXIT=60 MULT=1 ICHARG=0 $END
 $SYSTEM MEMDDI=1000 MWORDS=30 $END
 $SCF DIRSCF=.TRUE. $END
 $ELPOT  IEPOT=1 WHERE=PDC $END
 $PDC PTSEL=CHELPG CONSTR=CHARGE $END
 $DATA

C1
C 6.0000000 1.8554049730 -0.9738219242 -1.5166930777
C 6.0000000 4.3226127216 0.2198894127 1.9397960441
C 6.0000000 -2.8244669868 1.0050701016 -0.1514667920
H 1.0000000 1.6900663242 3.7587792233 -0.8675509932
H 1.0000000 5.5284645515 -2.7618192017 -1.0368296479
H 1.0000000 6.6302912630 -2.4002645111 0.2903400001
H 1.0000000 -0.4017383409 3.4925901793 0.4912052379
C 6.0000000 4.8847681970 -1.3416801949 0.3011050528
O 8.0000000 -5.9680014399 -0.5707337709 0.7566620510
O 8.0000000 1.2647926249 3.1004404407 -0.2573607389
O 8.0000000 -1.2772063061 3.0804761829 0.2109290611
O 8.0000000 -3.5119545723 -0.9596926893 1.9430397013
O 8.0000000 -4.2278656380 -2.6122977617 0.2185976112
O 8.0000000 -3.6007433091 -0.1929571802 -0.5641142945
C 6.0000000 0.5312503076 0.7887029866 -0.2432847157
C 6.0000000 0.5366348651 2.1080332650 -1.0393979787
C 6.0000000 -1.6626332595 1.0847089633 -1.1231134311
C 6.0000000 -0.9695977004 2.4625043268 -1.0649190506
H 1.0000000 -3.2252573681 -1.8819913069 2.1866713042
H 1.0000000 -4.8545539742 -3.0085612105 -0.4408469337
O 8.0000000 -0.6299593463 0.0717010272 -0.7535233910
N 7.0000000 5.7589934003 -2.2397808927 -0.2002999809
N 7.0000000 3.1129469006 0.5520850375 1.4376765365
N 7.0000000 3.0207010272 -1.6010568685 -1.4528925304
N 7.0000000 5.2063494876 -0.6716890672 1.4357082423
P 15.0000000 -4.4897672672 -1.0007809340 0.5893210303
C 6.0000000 2.8276390013 -0.1234821549 0.3121613593
C 6.0000000 3.6447639914 -1.0778734296 -0.3112913264
N 7.0000000 1.6857519905 -0.0527542609 -0.4729228334
H 1.0000000 0.4781058862 1.0276816656 0.8231621674
H 1.0000000 1.0740751957 -1.1434824223 -2.2348478168
H 1.0000000 0.9510210777 1.9437766554 -2.0375681830
H 1.0000000 4.6198095148 0.7233404232 2.8508603751
H 1.0000000 -2.0093630295 0.8349227062 -2.1281078170
H 1.0000000 -1.2514587022 3.0969519454 -1.9148261133
H 1.0000000 -3.4564075474 1.8920222426 -0.2266387410
H 1.0000000 -2.4601585134 0.8837329962 0.8668506127
 $END
