 $BASIS GBASIS=N21 NGAUSS=3 $END
 $CONTRL SCFTYP=RHF RUNTYP=OPTIMIZE DFTTYP=B3LYP MAXIT=60 MULT=1 ICHARG=0 $END 
 $SYSTEM MEMDDI=1000 MWORDS=30 $END
 $STATPT NSTEP=999 $END
 $SCF DIRSCF=.TRUE. $END
 $DATA

C1
C 6.0000000 1.98528 -0.85017 -1.47279
C 6.0000000 4.50272 0.19577 1.92348
C 6.0000000 -2.83703 0.77834 -0.08313
H 1.0000000 1.52862 3.73527 -1.24235
H 1.0000000 5.63580 -2.69115 -1.12065
H 1.0000000 6.75068 -2.36692 0.17316
H 1.0000000 -0.51393 3.58654 0.45533
C 6.0000000 5.04704 -1.26253 0.21806
O 8.0000000 -5.85752 -0.12244 0.35937
O 8.0000000 1.29023 3.14990 -0.51217
O 8.0000000 -1.27871 3.01109 0.28430
O 8.0000000 -4.21211 -1.20633 2.02256
O 8.0000000 -4.83357 -2.49582 -0.09008
O 8.0000000 -3.33668 -0.56247 -0.28836
C 6.0000000 0.67617 0.84432 -0.09503
C 6.0000000 0.52036 2.07115 -1.01527
C 6.0000000 -1.54715 0.90388 -0.86893
C 6.0000000 -0.99374 2.33310 -0.92319
H 1.0000000 -3.45682 -1.80808 2.10192
H 1.0000000 -5.72269 -2.60456 -0.45696
O 8.0000000 -0.51376 0.09085 -0.26546
N 7.0000000 5.94294 -2.09741 -0.36657
N 7.0000000 3.28652 0.54281 1.48931
N 7.0000000 3.14279 -1.46523 -1.48455
N 7.0000000 5.38509 -0.65184 1.36837
P 15.0000000 -4.67841 -0.99764 0.49202
C 6.0000000 2.98139 -0.08570 0.34785
C 6.0000000 3.78391 -0.99357 -0.35043
N 7.0000000 1.81817 0.00675 -0.39592
H 1.0000000 0.80973 1.18225 0.93939
H 1.0000000 1.19482 -0.99596 -2.19618
H 1.0000000 0.81183 1.80372 -2.03911
H 1.0000000 4.82563 0.65954 2.85343
H 1.0000000 -1.72409 0.53137 -1.88778
H 1.0000000 -1.38595 2.88368 -1.79238
H 1.0000000 -3.57620 1.50157 -0.44341
H 1.0000000 -2.64805 0.95861 0.97774
 $END
