 $BASIS GBASIS=N21 NGAUSS=3 $END
 $CONTRL SCFTYP=UHF MAXIT=60 MULT=2 ICHARG=-1 $END
 $SYSTEM MEMDDI=1000 MWORDS=30 $END
 $SCF DIRSCF=.TRUE. $END
 $STATPT OPTTOL=0.0001 NSTEP=999 $END
 $DATA

C1
C 6.0000000 -1.0090558167 -1.1779449064 0.4938329242
C 6.0000000 0.5005225082 -1.1004598835 0.2479007225
C 6.0000000 -1.6614737606 0.0278418425 -0.1537169394
C 6.0000000 1.0487191510 0.2815668951 0.6578644057
C 6.0000000 -1.1332661971 1.3035047895 0.4678279559
H 1.0000000 -2.4418902546 -2.2247372808 -0.3566429470
H 1.0000000 0.0570864712 -1.9841742678 -1.4171839684
H 1.0000000 -3.5171413176 0.6770645853 -0.3420350232
H 1.0000000 -1.3845158091 3.2236418351 0.0486707048
O 8.0000000 2.8632695894 1.2898020549 -0.6775496352
O 8.0000000 -1.4666312338 -2.3798134269 -0.2047553139
O 8.0000000 0.7200631083 -1.2700308148 -1.1756907853
O 8.0000000 -3.0922850255 -0.1452972812 0.0247291204
O 8.0000000 -1.8333026120 2.3644689091 -0.1739046934
O 8.0000000 3.2196895632 -0.5796756285 0.6113042525
C 6.0000000 2.4449368149 0.4408375999 0.0848904869
H 1.0000000 4.1262527098 -0.5357002541 0.1994041575
O 8.0000000 0.2793729831 1.4060870567 0.1449208113
H 1.0000000 -1.2504648208 -1.2084131615 1.5638914452
H 1.0000000 1.0336041190 -1.8538584833 0.8398391034
H 1.0000000 -1.3556838378 0.0509402210 -1.2052812257
H 1.0000000 1.1122682435 0.3045458264 1.7562109580
H 1.0000000 -1.2739744761 1.3014037734 1.5629730833
 $END
