 $BASIS GBASIS=N21 NGAUSS=3 $END
 $CONTRL SCFTYP=RHF RUNTYP=OPTIMIZE DFTTYP=B3LYP MAXIT=60 MULT=1 ICHARG=0 $END 
 $SYSTEM MEMDDI=1000 MWORDS=30 $END
 $STATPT NSTEP=999 $END
 $SCF DIRSCF=.TRUE. $END
 $DATA

C1
C 6.0000000 -1.03013050 -1.18460820 0.40293540
C 6.0000000 0.47839750 -1.12194280 0.12006590
C 6.0000000 -1.74570970 0.04087060 -0.15874030
C 6.0000000 1.02265390 0.25263130 0.56318920
C 6.0000000 -1.08785780 1.30771510 0.38894580
H 1.0000000 -2.48331200 -2.35030310 -0.17701610
H 1.0000000 0.22114540 -2.05022720 -1.55951520
H 1.0000000 -3.59745240 0.67944430 -0.14815410
H 1.0000000 -1.26361320 3.21261750 0.06361700
O 8.0000000 2.92443900 1.32409240 -0.53433950
O 8.0000000 -1.51531180 -2.38881740 -0.18251770
O 8.0000000 0.75211360 -1.29701380 -1.25857560
O 8.0000000 -3.11363100 -0.06963950 0.22737430
O 8.0000000 -1.72327060 2.40227620 -0.19890840
O 8.0000000 3.24949300 -0.52334490 0.72661150
C 6.0000000 2.48307310 0.44211920 0.15742720
H 1.0000000 4.16249500 -0.37774620 0.42585520
O 8.0000000 0.28556030 1.33493100 0.02433680
H 1.0000000 -1.18784570 -1.20965220 1.49329650
H 1.0000000 0.98375480 -1.89646770 0.71460100
H 1.0000000 -1.64472730 0.06394470 -1.25148840
H 1.0000000 0.99057880 0.27758000 1.66687870
H 1.0000000 -1.17474230 1.34314070 1.49162040
 $END
