 $BASIS GBASIS=N21 NGAUSS=3 $END
 $CONTRL SCFTYP=UHF MAXIT=60 MULT=2 ICHARG=1 $END
 $SYSTEM MEMDDI=1000 MWORDS=30 $END
 $SCF DIRSCF=.TRUE. $END
 $STATPT OPTTOL=0.0001 NSTEP=999 $END
 $DATA

C1
C 6.0000000 -0.23918 -0.52723 0.55111
C 6.0000000 -1.39823 0.17988 -0.16608
O 8.0000000 -2.57407 -0.12421 -0.12852
C 6.0000000 -0.78813 1.36672 -0.92809
C 6.0000000 0.70520 1.24838 -0.55360
C 6.0000000 0.82214 1.67410 0.93168
C 6.0000000 0.14429 0.48699 1.68402
C 6.0000000 0.91996 -0.30261 -0.49129
C 6.0000000 2.31480 -0.71496 0.01125
C 6.0000000 0.68902 -1.02131 -1.83571
C 6.0000000 -0.55725 -1.93268 1.03052
H 1.0000000 -0.98262 1.25124 -1.99958
H 1.0000000 -1.25629 2.30770 -0.61834
H 1.0000000 1.38217 1.77953 -1.23043
H 1.0000000 1.86506 1.80049 1.23704
H 1.0000000 0.31731 2.62824 1.11405
H 1.0000000 -0.73497 0.79001 2.26228
H 1.0000000 0.83111 0.00215 2.38561
H 1.0000000 2.58153 -0.29061 0.98197
H 1.0000000 2.38528 -1.80504 0.09937
H 1.0000000 3.07901 -0.39612 -0.70819
H 1.0000000 1.42042 -0.68047 -2.57836
H 1.0000000 0.82251 -2.10253 -1.71927
H 1.0000000 -0.30802 -0.86493 -2.25713
H 1.0000000 -0.79808 -2.59858 0.19540
H 1.0000000 0.28631 -2.36172 1.58277
H 1.0000000 -1.42890 -1.92076 1.69312
 $END
