 $BASIS GBASIS=N31 NGAUSS=6 NDFUNC=1 NPFUNC=1 $END
 $CONTRL SCFTYP=RHF RUNTYP=OPTIMIZE DFTTYP=B3LYP MAXIT=60 MULT=1 ICHARG=0 $END 
 $SYSTEM MEMDDI=1000 MWORDS=30 $END
 $STATPT NSTEP=999 $END
 $SCF DIRSCF=.TRUE. $END
 $DATA

C1
S 16.0000000 -0.52720 -1.69930 -1.36940
S 16.0000000 1.87630 2.11150 0.72870
O 8.0000000 -1.33910 -3.08980 0.74280
O 8.0000000 -2.49180 0.09330 3.23960
O 8.0000000 -2.17260 -2.53900 4.33810
O 8.0000000 -1.28080 0.63980 0.78590
O 8.0000000 -1.41040 -5.84270 1.68330
O 8.0000000 1.52460 1.30250 -0.59320
O 8.0000000 3.25540 4.97410 -3.05430
O 8.0000000 2.66910 3.41240 0.27840
O 8.0000000 2.77430 1.24570 1.71650
O 8.0000000 0.56730 2.62480 1.47490
N 7.0000000 0.90310 0.31290 -0.66780
C 6.0000000 -1.70310 -0.90680 2.59690
C 6.0000000 -2.25160 -2.31650 2.93060
C 6.0000000 -1.48240 -3.42390 2.14700
C 6.0000000 -1.66490 -0.70060 1.05960
C 6.0000000 -0.75670 -1.80230 0.43140
C 6.0000000 -2.17100 -4.80390 2.28800
C 6.0000000 0.40960 -0.28980 -1.69390
C 6.0000000 0.52630 0.13070 -3.09570
C 6.0000000 1.24080 1.42140 -3.29760
C 6.0000000 2.65570 1.45620 -3.32140
C 6.0000000 0.53510 2.64780 -3.28050
C 6.0000000 3.34650 2.67930 -3.24270
C 6.0000000 1.22390 3.87260 -3.20880
C 6.0000000 2.63170 3.89000 -3.16840
H 1.0000000 -0.69040 -0.80890 3.00280
H 1.0000000 -3.30960 -2.34330 2.65190
H 1.0000000 -2.67220 -0.79870 0.64590
H 1.0000000 -0.47850 -3.51930 2.57410
H 1.0000000 0.25070 -1.77250 0.85770
H 1.0000000 -3.16100 -4.78880 1.82690
H 1.0000000 -2.29090 -5.06380 3.34240
H 1.0000000 -2.02080 0.93700 3.07040
H 1.0000000 -2.68190 -1.80640 4.74490
H 1.0000000 -1.90790 1.21650 1.26830
H 1.0000000 -1.90640 -6.66410 1.88810
H 1.0000000 -0.47680 0.20430 -3.52660
H 1.0000000 1.02700 -0.65680 -3.66610
H 1.0000000 3.19730 0.58820 -3.34390
H 1.0000000 -0.48810 2.66130 -3.27670
H 1.0000000 4.36940 2.67810 -3.21650
H 1.0000000 0.69360 4.74640 -3.16540
H 1.0000000 2.82400 5.73870 -2.98650
H 1.0000000 2.83470 4.05150 0.86030
 $END
