 $BASIS GBASIS=N21 NGAUSS=3 $END
 $CONTRL SCFTYP=RHF DFTTYP=B3LYP MAXIT=60 MULT=1 ICHARG=0 $END
 $SYSTEM MEMDDI=1000 MWORDS=30 $END
 $SCF DIRSCF=.TRUE. $END
 $ELPOT  IEPOT=1 WHERE=PDC $END
 $PDC PTSEL=GEODESIC CONSTR=CHARGE $END
 $DATA

C1
N 7.0000000 0.1057917586 1.6854723659 -0.2972100382
C 6.0000000 -0.1908205881 0.2566843871 -0.3874811970
H 1.0000000 -0.0134036067 -0.0882931407 -1.4098222203
C 6.0000000 0.7284607177 -0.5426213187 0.5525908807
S 16.0000000 2.5329607925 -0.0816070862 0.1291602262
C 6.0000000 -1.6386915312 -0.0568726714 -0.0083434385
O 8.0000000 -2.4635711494 0.7386143657 0.4229833318
O 8.0000000 -1.8976696058 -1.4017359175 -0.1836502705
H 1.0000000 -0.1720477103 2.2013119722 -1.1345002611
H 1.0000000 -0.3288113802 2.1033080071 0.5312729686
H 1.0000000 0.5457334385 -0.2647194824 1.5927410983
H 1.0000000 0.5754436749 -1.6122617634 0.4119601188
H 1.0000000 3.0488190967 -1.3196449175 0.4548296270
H 1.0000000 -2.8381439072 -1.5892548003 0.0948691739
 $END
