 $BASIS GBASIS=N21 NGAUSS=3 $END
 $CONTRL SCFTYP=RHF RUNTYP=OPTIMIZE DFTTYP=B3LYP MAXIT=60 MULT=1 ICHARG=0 $END 
 $SYSTEM MEMDDI=1000 MWORDS=30 $END
 $STATPT NSTEP=999 $END
 $SCF DIRSCF=.TRUE. $END
 $DATA

C1
N 7.0000000 0.09690 1.68146 -0.34716
C 6.0000000 -0.17703 0.25634 -0.37042
H 1.0000000 -0.00141 -0.11779 -1.38509
C 6.0000000 0.77889 -0.48894 0.58012
S 16.0000000 2.53088 -0.14980 0.09636
C 6.0000000 -1.62271 -0.09641 0.01003
O 8.0000000 -2.39996 0.64682 0.57017
O 8.0000000 -1.94707 -1.36602 -0.34017
H 1.0000000 -0.36156 2.15862 -1.11758
H 1.0000000 -0.24902 2.09983 0.51357
H 1.0000000 0.61486 -0.15102 1.60914
H 1.0000000 0.59290 -1.56305 0.53004
H 1.0000000 3.00160 -1.35708 0.47335
H 1.0000000 -2.86322 -1.52458 -0.05296
 $END
