 $BASIS GBASIS=N21 NGAUSS=3 $END
 $CONTRL SCFTYP=RHF RUNTYP=OPTIMIZE DFTTYP=B3LYP MAXIT=60 MULT=1 ICHARG=0 $END 
 $SYSTEM MEMDDI=1000 MWORDS=30 $END
 $STATPT NSTEP=999 $END
 $SCF DIRSCF=.TRUE. $END
 $DATA

C1
O 8.0000000 1.59638090 0.17064300 -1.18921850
C 6.0000000 0.78273080 0.50445630 -0.11382850
C 6.0000000 -0.70997110 0.28243810 -0.45917220
C 6.0000000 -1.73532550 0.69518660 0.55856200
O 8.0000000 -0.98211970 -0.24118810 -1.52508800
O 8.0000000 1.00936790 -0.31036510 1.03046460
H 1.0000000 1.07123360 -0.40392560 -1.77771770
H 1.0000000 0.97728080 1.55897900 0.13227540
H 1.0000000 -1.56787960 0.13478460 1.48515180
H 1.0000000 -1.61785050 1.75757780 0.80445420
H 1.0000000 -2.74047110 0.50790600 0.17758300
H 1.0000000 1.96542350 -0.34439250 1.17793380
 $END
