 $BASIS GBASIS=N31 NGAUSS=6 NDFUNC=1 NPFUNC=1 $END
 $CONTRL SCFTYP=RHF RUNTYP=OPTIMIZE DFTTYP=B3LYP MAXIT=60 MULT=1 ICHARG=0 $END 
 $SYSTEM MEMDDI=1000 MWORDS=30 $END
 $STATPT NSTEP=999 $END
 $SCF DIRSCF=.TRUE. $END
 $DATA

C1
C 6.0000000 6.73534 1.71682 -7.68090
C 6.0000000 5.71840 0.97687 -6.78387
C 6.0000000 6.29966 2.48337 -8.87589
O 8.0000000 8.18352 1.65491 -7.68960
C 6.0000000 4.78794 -0.04735 -7.54939
O 8.0000000 5.01653 1.86680 -5.86384
C 6.0000000 5.15440 1.82862 -9.58528
O 8.0000000 5.92888 3.82960 -8.57681
C 6.0000000 8.76684 0.84445 -8.58376
O 8.0000000 5.11624 0.35627 -9.04326
C 6.0000000 5.65964 2.80689 -5.08172
C 6.0000000 5.69317 2.65080 -10.91704
C 6.0000000 6.95402 4.56601 -8.15778
C 6.0000000 8.43795 -0.61087 -8.48494
O 8.0000000 9.94061 1.04307 -8.83510
C 6.0000000 7.02085 3.51310 -5.13394
O 8.0000000 4.88723 3.35319 -4.31363
O 8.0000000 6.58049 3.89865 -10.72047
C 6.0000000 8.32270 4.64378 -8.81410
O 8.0000000 6.60371 5.48757 -7.44289
C 6.0000000 9.04057 -1.66530 -9.16836
C 6.0000000 8.14247 -0.90927 -7.17948
C 6.0000000 8.25809 2.98387 -5.53281
C 6.0000000 7.06127 4.82576 -4.64879
C 6.0000000 6.13465 5.20728 -10.85346
C 6.0000000 9.30315 3.66651 -8.98940
C 6.0000000 8.76215 5.94916 -8.92455
C 6.0000000 8.74087 -2.97278 -8.77126
C 6.0000000 7.41318 -2.06812 -7.04914
C 6.0000000 9.44248 3.73310 -5.54009
C 6.0000000 8.25232 5.54903 -4.52578
C 6.0000000 6.63976 6.53484 -10.21978
O 8.0000000 5.26079 5.35056 -11.69200
C 6.0000000 10.60565 3.95987 -8.58083
C 6.0000000 10.03176 6.28928 -8.43001
C 6.0000000 7.72682 -3.17366 -7.83576
O 8.0000000 9.49176 -4.04624 -9.23616
O 8.0000000 6.70460 -2.20090 -5.92848
C 6.0000000 9.44638 5.01871 -5.01006
O 8.0000000 10.66851 3.14836 -5.85529
O 8.0000000 8.25779 6.80264 -3.91982
C 6.0000000 7.62965 6.84191 -9.24574
C 6.0000000 5.90784 7.68428 -10.57665
C 6.0000000 10.92124 5.24868 -8.14814
O 8.0000000 11.58007 2.96370 -8.60064
O 8.0000000 10.50829 7.60164 -8.45602
O 8.0000000 7.37095 -4.46123 -7.44116
O 8.0000000 10.65782 5.68931 -4.83791
C 6.0000000 7.49440 7.92486 -8.36094
C 6.0000000 5.95716 8.90456 -9.88279
O 8.0000000 12.18110 5.51243 -7.61426
C 6.0000000 6.73253 9.02216 -8.73648
O 8.0000000 8.02562 7.90182 -7.06702
O 8.0000000 5.12417 9.97117 -10.21992
O 8.0000000 6.65053 10.16221 -7.93236
O 8.0000000 4.70048 -1.59210 -7.08954
C 6.0000000 4.49386 -2.55450 -5.93079
C 6.0000000 4.31255 -2.81482 -4.36122
O 8.0000000 4.17778 -3.60245 -6.47561
C 6.0000000 4.73271 -3.67645 -3.15933
C 6.0000000 3.58196 -3.61435 -2.31437
C 6.0000000 2.86090 -2.39779 -2.23880
C 6.0000000 2.37461 -1.84124 -3.41043
C 6.0000000 2.96543 -2.43596 -4.49596
O 8.0000000 1.79162 -0.57376 -3.53557
O 8.0000000 2.71584 -1.70425 -1.03863
O 8.0000000 3.56826 -4.38569 -1.15515
C 6.0000000 7.47841 -5.75910 -2.07872
C 6.0000000 8.25614 -4.68998 -0.91707
C 6.0000000 8.80817 -6.73189 -2.28563
O 8.0000000 6.56812 -5.27963 -3.56358
C 6.0000000 9.74437 -3.94458 -0.87312
O 8.0000000 7.96206 -4.39850 0.47205
C 6.0000000 10.27001 -6.12030 -1.77099
O 8.0000000 8.61915 -7.79741 -3.34192
C 6.0000000 6.48814 -3.75965 -4.30262
O 8.0000000 10.43119 -4.69334 -1.86151
O 8.0000000 10.01576 -2.38891 -0.79849
C 6.0000000 8.04060 -3.04508 0.79621
C 6.0000000 11.78921 -6.32992 -2.23498
C 6.0000000 8.55171 -7.74085 -4.75081
C 6.0000000 6.40926 -2.23201 -3.47082
O 8.0000000 6.07892 -4.12008 -5.38619
C 6.0000000 11.22494 -1.66050 -1.07367
C 6.0000000 7.69735 -1.84083 -0.10383
O 8.0000000 8.22273 -2.81234 1.98024
O 8.0000000 12.07680 -6.16056 -3.60730
C 6.0000000 9.53272 -7.35290 -5.88562
O 8.0000000 7.92808 -8.72090 -5.12675
C 6.0000000 7.65951 -1.31055 -3.69218
C 6.0000000 5.51852 -1.94907 -2.07106
C 6.0000000 11.40860 -0.16589 -1.52045
O 8.0000000 12.22743 -2.33061 -1.25474
C 6.0000000 7.24163 -0.58280 0.73933
C 6.0000000 7.44839 -1.86873 -1.70024
C 6.0000000 10.97047 -6.53450 -4.13001
C 6.0000000 10.10292 -8.43618 -6.58805
C 6.0000000 9.95574 -6.06318 -6.31536
C 6.0000000 8.40627 -0.38799 -2.65859
C 6.0000000 6.00463 -1.03994 -0.82928
C 6.0000000 11.04071 0.99697 -0.81332
C 6.0000000 11.65498 0.23894 -2.86374
C 6.0000000 6.50462 0.69425 0.14961
C 6.0000000 6.43551 -0.24761 -2.47137
C 6.0000000 10.03200 -5.33251 -4.15052
O 8.0000000 10.73608 -7.69042 -3.80753
C 6.0000000 11.17639 -8.29521 -7.47885
C 6.0000000 11.10829 -5.93204 -7.10179
C 6.0000000 7.81323 -0.10949 -1.18593
O 8.0000000 9.66944 -0.73907 -2.69523
O 8.0000000 5.28356 -1.33830 0.38903
C 6.0000000 10.31565 2.04750 -1.40917
C 6.0000000 10.75372 1.10892 -3.53495
C 6.0000000 6.08983 0.88800 -1.37202
O 8.0000000 6.41235 1.79398 0.99881
O 8.0000000 5.63634 -0.18619 -3.62872
C 6.0000000 9.88473 -4.86944 -5.43076
C 6.0000000 8.69802 -5.09796 -3.79493
C 6.0000000 11.69378 -7.03068 -7.72607
O 8.0000000 11.79820 -9.39489 -8.07943
O 8.0000000 11.84726 -4.75567 -7.01116
O 8.0000000 8.84598 0.29640 -0.29032
C 6.0000000 9.93424 1.90684 -2.73539
O 8.0000000 9.67670 3.02206 -0.63370
O 8.0000000 10.27353 0.80307 -4.82280
O 8.0000000 5.43554 2.05840 -1.72518
C 6.0000000 9.10543 -3.69273 -5.42691
C 6.0000000 8.11343 -3.98634 -3.07223
O 8.0000000 12.87667 -6.89767 -8.45567
O 8.0000000 8.68248 2.38387 -3.15380
C 6.0000000 8.89919 -3.30671 -4.07590
O 8.0000000 9.63654 -2.68798 -6.22192
O 8.0000000 10.19160 -2.95819 -3.71516
O 8.0000000 6.36304 -3.87633 -2.39464
H 1.0000000 6.61999 2.59940 -7.10379
H 1.0000000 6.38911 0.46144 -6.15175
H 1.0000000 7.21784 2.35921 -9.45149
H 1.0000000 3.74680 0.31008 -7.47260
H 1.0000000 4.18654 2.29975 -9.36295
H 1.0000000 4.92092 2.86263 -11.67225
H 1.0000000 6.39673 1.96657 -11.42829
H 1.0000000 9.81735 -1.46537 -9.88991
H 1.0000000 8.33737 -0.21439 -6.37543
H 1.0000000 8.35168 1.91495 -5.58846
H 1.0000000 6.13868 5.30590 -4.35029
H 1.0000000 9.21947 3.00804 -9.84396
H 1.0000000 9.25625 -4.84400 -8.77517
H 1.0000000 6.33764 -1.39998 -5.60872
H 1.0000000 10.57384 2.38154 -6.40383
H 1.0000000 7.51791 6.90690 -3.33408
H 1.0000000 5.24088 7.63581 -11.42623
H 1.0000000 12.33272 3.20298 -8.07185
H 1.0000000 10.11568 8.15469 -7.79280
H 1.0000000 6.43292 -4.58093 -7.53040
H 1.0000000 10.55957 6.49032 -4.33777
H 1.0000000 12.12047 6.15567 -6.91805
H 1.0000000 8.03214 7.04094 -6.66988
H 1.0000000 4.65155 9.83594 -11.02981
H 1.0000000 7.27192 10.14465 -7.21275
H 1.0000000 2.49915 -2.15025 -5.44038
H 1.0000000 1.57236 -0.14346 -2.72106
H 1.0000000 3.06009 -0.82127 -1.13577
H 1.0000000 2.99002 -3.98797 -0.50892
H 1.0000000 6.78154 -6.37273 -1.48505
H 1.0000000 7.45711 -4.02025 -0.83620
H 1.0000000 8.70440 -7.43686 -1.44546
H 1.0000000 10.25460 -4.28050 0.04772
H 1.0000000 10.40625 -6.42350 -0.72068
H 1.0000000 12.41361 -5.47554 -1.91448
H 1.0000000 12.28668 -7.23822 -1.87086
H 1.0000000 8.15543 -1.32687 -4.63632
H 1.0000000 5.15053 -2.64653 -1.32089
H 1.0000000 7.53595 -0.54771 1.78505
H 1.0000000 8.35007 -2.33994 -1.95639
H 1.0000000 9.76363 -9.44759 -6.39252
H 1.0000000 11.24888 1.07528 0.24307
H 1.0000000 12.16978 -0.46539 -3.50472
H 1.0000000 9.85520 -0.95501 -3.58870
H 1.0000000 4.86775 -0.64401 0.89334
H 1.0000000 6.58943 2.59668 0.52264
H 1.0000000 5.86791 0.60215 -4.08180
H 1.0000000 8.14417 -5.59128 -4.60035
H 1.0000000 11.59096 -10.22816 -7.67641
H 1.0000000 12.75387 -4.94591 -6.79512
H 1.0000000 8.73035 1.12722 0.15518
H 1.0000000 8.97913 3.45544 -1.12102
H 1.0000000 10.70130 0.09069 -5.28494
H 1.0000000 4.88384 1.91219 -2.47803
H 1.0000000 12.96018 -6.03721 -8.85028
H 1.0000000 8.08109 1.71030 -3.44821
H 1.0000000 10.47271 -2.95103 -6.58595
H 1.0000000 10.38490 -2.86867 -2.81892
 $END
