 $BASIS GBASIS=N21 NGAUSS=3 $END
 $CONTRL SCFTYP=RHF DFTTYP=B3LYP MAXIT=60 MULT=1 ICHARG=1 $END
 $SYSTEM MEMDDI=1000 MWORDS=30 $END
 $SCF DIRSCF=.TRUE. $END
 $ELPOT  IEPOT=1 WHERE=PDC $END
 $PDC PTSEL=GEODESIC CONSTR=CHARGE $END
 $DATA

C1
N 7.0000000 1.1833909004 1.8674713445 0.1720597982
C 6.0000000 1.3546676690 0.4332882124 0.4622099748
H 1.0000000 1.4191529834 0.2719400746 1.5433451180
C 6.0000000 0.1428706121 -0.3769999693 -0.0829884482
C 6.0000000 -1.1636476678 0.1804946210 0.5106008811
C 6.0000000 -2.4184465588 -0.4043044936 -0.1861775385
C 6.0000000 -3.6746287730 0.2472470471 0.3962511120
N 7.0000000 -4.9598881271 -0.3203435466 -0.3032968601
C 6.0000000 2.6245870499 -0.1155774382 -0.1797264128
O 8.0000000 3.3628056440 0.5001537581 -0.9377271913
O 8.0000000 2.8013035457 -1.4336610944 0.1724107732
H 1.0000000 1.6231923672 2.0849512953 -0.7313026318
H 1.0000000 1.6134937957 2.4552383838 0.8926300421
H 1.0000000 0.1240468775 -0.2636470727 -1.1756719013
H 1.0000000 0.2890584786 -1.4344431663 0.1554347225
H 1.0000000 -1.2042662874 -0.0407261485 1.5857336459
H 1.0000000 -1.1139149041 1.2686179146 0.3811262188
H 1.0000000 -2.3554960851 -0.2013980826 -1.2636994128
H 1.0000000 -2.4523364390 -1.4921733457 -0.0374044905
H 1.0000000 -3.7975036300 0.0316108501 1.4597955461
H 1.0000000 -3.6948565373 1.3255798938 0.2242465861
H 1.0000000 -5.0106221060 -1.3450348554 -0.1640206439
H 1.0000000 -5.8200671182 0.1116047122 0.0774243585
H 1.0000000 3.6242649231 -1.7897321675 -0.2671813474
H 1.0000000 -4.9150406129 -0.1342067264 -1.3206618986
 $END
