 $BASIS GBASIS=N31 NGAUSS=6 NDFUNC=1 NPFUNC=1 $END
 $CONTRL SCFTYP=RHF RUNTYP=OPTIMIZE DFTTYP=B3LYP MAXIT=60 MULT=1 ICHARG=0 $END 
 $SYSTEM MEMDDI=1000 MWORDS=30 $END
 $STATPT NSTEP=999 $END
 $SCF DIRSCF=.TRUE. $END
 $DATA

C1
C 6.0000000 7.55020 -0.26250 0.03240
C 6.0000000 -4.33160 2.31060 -0.24630
C 6.0000000 -4.09960 1.10920 1.92810
C 6.0000000 -2.62840 -2.09450 -1.09560
C 6.0000000 0.45210 1.42550 -1.33310
C 6.0000000 5.26740 1.02930 -1.06280
H 1.0000000 9.28390 0.12330 1.00520
C 6.0000000 -5.84790 0.40130 0.29210
C 6.0000000 -5.05080 -1.89590 -0.22920
C 6.0000000 -5.86110 -1.05840 0.76200
O 8.0000000 8.37740 -0.15630 1.19270
C 6.0000000 0.27980 0.30070 -0.34510
C 6.0000000 5.09510 -0.09550 -0.07480
C 6.0000000 -3.44160 0.00390 -0.18430
C 6.0000000 -3.71640 -1.25480 -0.47740
C 6.0000000 -2.10260 0.50570 -0.48670
C 6.0000000 -1.01330 -0.11070 0.03590
C 6.0000000 1.37170 -0.31720 0.17870
C 6.0000000 2.66480 0.09420 -0.20230
C 6.0000000 3.75410 -0.52220 0.32030
C 6.0000000 6.16750 -0.70240 0.43970
C 6.0000000 -4.42660 0.94760 0.44220
H 1.0000000 -1.98050 1.36730 -1.12630
H 1.0000000 -6.15110 0.45210 -0.75370
H 1.0000000 -6.53250 0.98910 0.90360
H 1.0000000 -4.46620 2.18510 -1.32070
H 1.0000000 -5.10830 2.96900 0.14270
H 1.0000000 -3.35270 2.74860 -0.05150
H 1.0000000 -3.09160 1.50950 2.03690
H 1.0000000 -4.81390 1.79420 2.38490
H 1.0000000 -4.16030 0.13890 2.42110
H 1.0000000 -4.90110 -2.89510 0.17970
H 1.0000000 -5.59630 -1.97060 -1.16990
H 1.0000000 -2.05900 -2.58850 -0.30820
H 1.0000000 -3.07500 -2.84580 -1.74700
H 1.0000000 -1.96410 -1.45660 -1.67870
H 1.0000000 -1.13680 -0.91680 0.74390
H 1.0000000 -5.41200 -1.12820 1.75270
H 1.0000000 -6.88780 -1.42290 0.79590
H 1.0000000 1.24820 -1.12330 0.88680
H 1.0000000 0.50600 2.37380 -0.79840
H 1.0000000 1.37160 1.27460 -1.89870
H 1.0000000 -0.39660 1.44170 -2.01690
H 1.0000000 2.78830 0.90030 -0.91030
H 1.0000000 3.63060 -1.32830 1.02840
H 1.0000000 6.04410 -1.50850 1.14780
H 1.0000000 5.32130 1.97760 -0.52800
H 1.0000000 6.18690 0.87840 -1.62840
H 1.0000000 4.41870 1.04550 -1.74660
H 1.0000000 7.49190 0.70700 -0.46230
H 1.0000000 7.97740 -0.99480 -0.65260
 $END
