 $BASIS GBASIS=N31 NGAUSS=6 NDFUNC=1 NPFUNC=1 $END
 $CONTRL SCFTYP=RHF RUNTYP=OPTIMIZE DFTTYP=B3LYP MAXIT=60 MULT=1 ICHARG=0 $END 
 $SYSTEM MEMDDI=1000 MWORDS=30 $END
 $STATPT NSTEP=999 $END
 $SCF DIRSCF=.TRUE. $END
 $DATA

C1
C 6.0000000 -2.83100 0.18110 -0.00640
C 6.0000000 -3.30370 0.82280 1.30630
C 6.0000000 3.25310 -0.27180 0.38420
C 6.0000000 3.27830 -1.79170 0.17380
C 6.0000000 -0.33020 0.18120 -0.08210
C 6.0000000 -1.45300 -1.78120 0.70970
C 6.0000000 -5.94820 -1.12710 -1.34980
C 6.0000000 -0.23480 -2.40100 0.91360
C 6.0000000 -7.77150 0.33470 -0.74250
C 6.0000000 5.58580 0.63420 0.41330
C 6.0000000 4.37250 0.65340 -1.65310
C 6.0000000 5.45640 1.22940 -2.29000
C 6.0000000 4.55770 -2.37500 0.77710
C 6.0000000 7.80030 1.15190 1.87570
H 1.0000000 -2.61480 2.26930 2.54490
H 1.0000000 -7.34070 2.96510 0.30170
H 1.0000000 -8.55940 -2.19650 -1.81600
H 1.0000000 5.40540 -4.21250 0.85570
H 1.0000000 8.29930 1.43690 -2.57420
C 6.0000000 -1.50060 -0.49170 0.21320
C 6.0000000 -6.92760 1.06240 0.07780
C 6.0000000 4.43710 0.35650 -0.30480
C 6.0000000 -7.28240 -0.75390 -1.45360
C 6.0000000 6.67510 1.21120 -0.21860
C 6.0000000 6.61010 1.51020 -1.57660
O 8.0000000 -4.96280 2.53330 1.49940
O 8.0000000 -2.37340 1.82530 1.72050
O 8.0000000 -7.40150 2.12430 0.77550
O 8.0000000 -8.11620 -1.45960 -2.25830
O 8.0000000 4.61840 -3.77590 0.50190
O 8.0000000 7.67700 2.07630 -2.20150
O 8.0000000 7.80530 1.48540 0.48620
C 6.0000000 -4.65750 1.45420 1.03520
C 6.0000000 -5.57760 0.69320 0.18280
C 6.0000000 -5.08760 -0.41470 -0.53380
C 6.0000000 0.89580 -0.43560 0.11920
C 6.0000000 0.94360 -1.73090 0.62020
O 8.0000000 -3.79010 -0.78700 -0.43120
O 8.0000000 2.03980 0.23880 -0.17900
O 8.0000000 2.13580 -2.35360 0.82890
H 1.0000000 -2.72760 0.95070 -0.77140
H 1.0000000 -3.39650 0.06050 2.07980
H 1.0000000 3.28620 -0.04780 1.45050
H 1.0000000 -0.37020 1.18820 -0.47030
H 1.0000000 3.23830 -2.01620 -0.89210
H 1.0000000 -2.36940 -2.30480 0.93860
H 1.0000000 -5.58180 -1.97620 -1.90750
H 1.0000000 -0.20030 -3.40810 1.30220
H 1.0000000 -8.81130 0.61300 -0.82970
H 1.0000000 5.63200 0.40530 1.46770
H 1.0000000 3.47350 0.43530 -2.21040
H 1.0000000 5.42440 -1.88060 0.33830
H 1.0000000 4.55610 -2.21630 1.85540
H 1.0000000 5.40350 1.46010 -3.34380
H 1.0000000 7.00220 1.69890 2.37770
H 1.0000000 7.63540 0.08080 1.99170
H 1.0000000 8.75940 1.42190 2.31760
 $END
