 $BASIS GBASIS=N21 NGAUSS=3 $END
 $CONTRL SCFTYP=UHF MAXIT=60 MULT=2 ICHARG=-1 $END
 $SYSTEM MEMDDI=1000 MWORDS=30 $END
 $SCF DIRSCF=.TRUE. $END
 $STATPT OPTTOL=0.0001 NSTEP=999 $END
 $DATA

C1
B 5.0000000 -4.6657129675 -1.4293907785 -0.0536036489
O 8.0000000 -3.3559538541 -1.3932956678 -0.5116796890
H 1.0000000 -3.0068163818 -0.4850776627 -0.6811405866
O 8.0000000 -5.3691479064 -0.2470703360 0.1306190367
H 1.0000000 -6.2921473904 -0.3678330352 0.4607116107
O 8.0000000 -5.2719516283 -2.6475904431 0.2200820461
H 1.0000000 -4.6973298715 -3.4351520768 0.0618012309
 $END
