 $BASIS GBASIS=N21 NGAUSS=3 $END
 $CONTRL SCFTYP=RHF RUNTYP=OPTIMIZE DFTTYP=B3LYP MAXIT=60 MULT=1 ICHARG=0 $END 
 $SYSTEM MEMDDI=1000 MWORDS=30 $END
 $STATPT NSTEP=999 $END
 $SCF DIRSCF=.TRUE. $END
 $DATA

C1
B 5.0000000 -4.66567 -1.42900 -0.05355
O 8.0000000 -3.37088 -1.40944 -0.50570
H 1.0000000 -3.06625 -0.50747 -0.65921
O 8.0000000 -5.34882 -0.25295 0.12382
H 1.0000000 -6.24365 -0.41218 0.44601
O 8.0000000 -5.27752 -2.62549 0.22093
H 1.0000000 -4.68627 -3.36888 0.05449
 $END
