 $BASIS GBASIS=N31 NGAUSS=6 NDFUNC=1 NPFUNC=1 $END
 $CONTRL SCFTYP=RHF RUNTYP=OPTIMIZE DFTTYP=B3LYP MAXIT=60 MULT=1 ICHARG=0 $END 
 $SYSTEM MEMDDI=1000 MWORDS=30 $END
 $STATPT NSTEP=999 $END
 $SCF DIRSCF=.TRUE. $END
 $DATA

C1
C 6.0000000 0.75080 -1.49480 0.00020
C 6.0000000 0.51610 1.29990 0.00030
C 6.0000000 3.32970 -0.97120 -0.00060
C 6.0000000 3.93680 0.22190 -0.00020
O 8.0000000 -4.04780 0.90420 -0.00020
C 6.0000000 -2.96670 0.34370 -0.00030
C 6.0000000 -0.50730 -0.89320 0.00030
C 6.0000000 -0.62200 0.51280 0.00040
O 8.0000000 -1.84770 1.08400 0.00010
C 6.0000000 -1.72750 -1.70630 0.00000
C 6.0000000 -2.92450 -1.06670 -0.00030
C 6.0000000 1.88600 -0.69600 0.00010
C 6.0000000 1.77130 0.70890 0.00010
O 8.0000000 3.02380 1.20950 0.00000
H 1.0000000 0.84100 -2.57100 0.00470
H 1.0000000 -1.67500 -2.78500 -0.00040
H 1.0000000 0.42710 2.37620 -0.00010
H 1.0000000 -3.84240 -1.63580 -0.00030
H 1.0000000 3.80510 -1.94090 -0.00150
H 1.0000000 5.00650 0.37020 -0.00030
 $END
