 $BASIS GBASIS=N21 NGAUSS=3 $END
 $CONTRL SCFTYP=RHF DFTTYP=B3LYP MAXIT=60 MULT=1 ICHARG=0 $END
 $SYSTEM MEMDDI=1000 MWORDS=30 $END
 $SCF DIRSCF=.TRUE. $END
 $ELPOT  IEPOT=1 WHERE=PDC $END
 $PDC PTSEL=CHELPG CONSTR=CHARGE $END
 $DATA

C1
C 6.0000000 1.7202647317 0.9739457691 0.6377213920
C 6.0000000 1.7104238740 -1.3319384216 -0.0758471078
C 6.0000000 3.0648697496 1.0822580841 0.2718720110
C 6.0000000 3.0539714413 -1.2264991476 -0.4389927658
C 6.0000000 3.7347085751 -0.0173344607 -0.2685900377
C 6.0000000 -0.4475715117 -0.3252858127 0.7863929656
H 1.0000000 -1.6083793889 2.1218934282 -0.5230817443
H 1.0000000 -0.0847632213 1.6332577655 -1.1356786661
C 6.0000000 1.0269590463 -0.2348164027 0.4695009361
O 8.0000000 -3.5333742395 0.9391721668 0.0892139431
O 8.0000000 -3.1099723748 -1.3123468076 0.2008750910
C 6.0000000 -2.7637670454 -0.0016311532 -0.0643194138
H 1.0000000 -4.0553849105 -1.3313048631 0.5193674894
C 6.0000000 -1.3086857964 0.0753330047 -0.4796383109
N 7.0000000 -1.0697386505 1.4060200620 -1.0118305282
H 1.0000000 -0.7307709290 -1.3412179268 1.0764774964
H 1.0000000 -0.7075502708 0.3601221197 1.6021671330
H 1.0000000 1.2075733360 1.8244430334 1.0753134269
H 1.0000000 1.1858391920 -2.2727021386 -0.2102818039
H 1.0000000 -1.1318079974 -0.6924062948 -1.2411915081
H 1.0000000 3.5881514299 2.0213041629 0.4141043794
H 1.0000000 3.5699855100 -2.0854024521 -0.8535555529
H 1.0000000 4.7783594504 0.0639562852 -0.5501988245
 $END
