 $BASIS GBASIS=N21 NGAUSS=3 $END
 $CONTRL SCFTYP=RHF DFTTYP=B3LYP MAXIT=60 MULT=1 ICHARG=0 $END
 $SYSTEM MEMDDI=1000 MWORDS=30 $END
 $SCF DIRSCF=.TRUE. $END
 $ELPOT  IEPOT=1 WHERE=PDC $END
 $PDC PTSEL=GEODESIC CONSTR=CHARGE $END
 $DATA

C1
O 8.0000000 -3.2619090791 0.4073462201 -0.6983425722
C 6.0000000 -2.4975049918 -0.3687170729 -0.1121930616
C 6.0000000 -1.1914535956 0.1426987428 0.4619871894
H 1.0000000 -1.1653017061 -0.0316498378 1.5473655414
O 8.0000000 -1.0923419593 1.5628692065 0.1695409674
C 6.0000000 -0.0226750982 -0.6497363123 -0.1849830220
H 1.0000000 -0.1286454357 -0.6262153308 -1.2726042359
O 8.0000000 -0.1484188926 -2.0464771531 0.2111749881
C 6.0000000 1.3304570036 -0.0345999699 0.1714310354
H 1.0000000 1.4381225234 0.0039690201 1.2705053057
O 8.0000000 1.4506885329 1.2852261766 -0.4293240310
C 6.0000000 2.5127955978 -0.8115468600 -0.4162375238
O 8.0000000 3.7131241725 -0.0320254794 -0.1773739192
H 1.0000000 -2.6675463923 -1.4458663828 -0.0057003230
H 1.0000000 -1.9255117788 1.7690435899 -0.3609894399
H 1.0000000 0.1999011879 -2.1260141202 1.1424552720
H 1.0000000 0.5730653025 1.7527865652 -0.2546888231
H 1.0000000 2.6291137978 -1.7816063488 0.0704702424
H 1.0000000 2.3169498826 -0.9696001752 -1.4884327531
H 1.0000000 3.4218910285 0.8978153220 -0.4110611370
 $END
