 $BASIS GBASIS=N21 NGAUSS=3 $END
 $CONTRL SCFTYP=RHF RUNTYP=OPTIMIZE DFTTYP=B3LYP MAXIT=60 MULT=1 ICHARG=0 $END 
 $SYSTEM MEMDDI=1000 MWORDS=30 $END
 $STATPT NSTEP=999 $END
 $SCF DIRSCF=.TRUE. $END
 $DATA

C1
O 8.0000000 -3.36678670 0.32868820 -0.60579150
C 6.0000000 -2.54466750 -0.41345640 -0.10126730
C 6.0000000 -1.22940490 0.13582170 0.42525760
H 1.0000000 -1.19680300 -0.06190670 1.51169390
O 8.0000000 -1.17048580 1.53157220 0.20418230
C 6.0000000 -0.02997080 -0.62082680 -0.21676270
H 1.0000000 -0.14598830 -0.63443930 -1.30646690
O 8.0000000 -0.09460610 -1.98581400 0.19800670
C 6.0000000 1.32815480 0.03050280 0.11557450
H 1.0000000 1.41654120 0.13532560 1.21319400
O 8.0000000 1.46445050 1.30411740 -0.50602500
C 6.0000000 2.51456270 -0.79446490 -0.39186540
O 8.0000000 3.74126460 -0.15479570 -0.07637960
H 1.0000000 -2.70915900 -1.50080160 -0.01725940
H 1.0000000 -2.00491430 1.78462900 -0.23608460
H 1.0000000 0.22284560 -2.06265370 1.10979570
H 1.0000000 0.67036600 1.82830300 -0.30641150
H 1.0000000 2.54248130 -1.77904110 0.08019750
H 1.0000000 2.40781510 -0.93506410 -1.47869120
H 1.0000000 3.66910470 0.76200420 -0.38189740
 $END
