 $BASIS GBASIS=N21 NGAUSS=3 $END
 $CONTRL SCFTYP=RHF DFTTYP=B3LYP MAXIT=60 MULT=1 ICHARG=0 $END
 $SYSTEM MEMDDI=1000 MWORDS=30 $END
 $SCF DIRSCF=.TRUE. $END
 $ELPOT  IEPOT=1 WHERE=PDC $END
 $PDC PTSEL=GEODESIC CONSTR=CHARGE $END
 $DATA

C1
C 6.0000000 -0.8577780964 -0.1069705995 0.2278688227
C 6.0000000 -0.0643917205 1.1166369399 -0.2413300936
C 6.0000000 1.3501320201 1.0550303391 0.3356360167
C 6.0000000 2.0622153950 -0.2145739024 -0.1268097748
C 6.0000000 3.4551494779 -0.3667667873 0.4550931918
C 6.0000000 -4.6068420346 0.0330228195 -0.4264701564
H 1.0000000 -0.0416802315 3.0327972089 0.0606868139
H 1.0000000 2.7002542464 2.5509502658 0.4814744185
H 1.0000000 0.4088195839 -2.1931893358 -1.8994453756
H 1.0000000 4.9645656303 -1.6445953051 0.1589139404
H 1.0000000 -2.2259141515 -0.3424079778 -1.3668485591
O 8.0000000 -3.2745445746 0.1968721851 1.6199047201
O 8.0000000 -0.7189373572 2.3182354159 0.2322864007
O 8.0000000 2.0006830099 2.2748552149 -0.1666969798
O 8.0000000 -0.1007501980 -1.3928294253 -1.5983463964
O 8.0000000 4.1134369471 -1.4209179205 -0.3045797677
C 6.0000000 -3.3158620588 0.0319834003 0.3911374969
C 6.0000000 -0.0778503868 -1.3709450869 -0.1491211316
O 8.0000000 1.2737686565 -1.3624152994 0.3643971797
N 7.0000000 -2.1860208727 -0.1679970603 -0.3682073831
H 1.0000000 -1.0107465760 -0.0495444065 1.3079775161
H 1.0000000 0.0162685434 1.0901601687 -1.3368652279
H 1.0000000 1.2722409256 1.0578054892 1.4316997391
H 1.0000000 -0.5373855018 -2.2623655952 0.2889687039
H 1.0000000 2.1221966704 -0.2267089884 -1.2182502663
H 1.0000000 3.9713247580 0.6010960596 0.3505729239
H 1.0000000 3.3492342586 -0.6083437486 1.5221329456
H 1.0000000 -5.4528299575 0.0394732909 0.2618173019
H 1.0000000 -4.6468317105 0.9308532989 -1.0548388196
H 1.0000000 -4.6637246944 -0.8479006579 -1.0758583000
 $END
