 $BASIS GBASIS=N21 NGAUSS=3 $END
 $CONTRL SCFTYP=RHF RUNTYP=OPTIMIZE DFTTYP=B3LYP MAXIT=60 MULT=1 ICHARG=0 $END 
 $SYSTEM MEMDDI=1000 MWORDS=30 $END
 $STATPT NSTEP=999 $END
 $SCF DIRSCF=.TRUE. $END
 $DATA

C1
C 6.0000000 -0.84048210 -0.02549380 0.17813340
C 6.0000000 -0.02544010 1.18935240 -0.28825440
C 6.0000000 1.40138650 1.12063890 0.26778220
C 6.0000000 2.05899790 -0.21887350 -0.10680910
C 6.0000000 3.43545300 -0.41463380 0.50607320
C 6.0000000 -4.61722310 -0.01659350 -0.39550050
H 1.0000000 -0.12198950 3.11480060 -0.10594010
H 1.0000000 2.79796010 2.53104870 0.28901250
H 1.0000000 0.31423250 -2.34942700 -1.75543220
H 1.0000000 4.85782490 -1.76263100 0.32765080
H 1.0000000 -2.25464070 -0.05226420 -1.39551420
O 8.0000000 -3.28543540 -0.12707430 1.60300010
O 8.0000000 -0.68337710 2.36841340 0.14962410
O 8.0000000 2.09364560 2.24128480 -0.30302910
O 8.0000000 -0.09643710 -1.49889570 -1.54579880
O 8.0000000 4.08152360 -1.48720140 -0.17542510
C 6.0000000 -3.30905080 -0.07144150 0.37611440
C 6.0000000 -0.07878690 -1.32568760 -0.13857730
O 8.0000000 1.23600610 -1.29501440 0.37675350
N 7.0000000 -2.17315160 -0.04589120 -0.38898090
H 1.0000000 -0.97224670 0.03132340 1.26249190
H 1.0000000 0.04745630 1.18362370 -1.38764860
H 1.0000000 1.35184440 1.21994490 1.36210860
H 1.0000000 -0.55528830 -2.17402210 0.36451190
H 1.0000000 2.15216640 -0.27663500 -1.19906080
H 1.0000000 4.01765980 0.51242460 0.39354010
H 1.0000000 3.31739780 -0.63347470 1.57675680
H 1.0000000 -5.26872650 -0.82029130 -0.04254720
H 1.0000000 -5.11074290 0.93359290 -0.16884480
H 1.0000000 -4.49233610 -0.09960230 -1.47929050
 $END
