 $BASIS GBASIS=N21 NGAUSS=3 $END
 $CONTRL SCFTYP=UHF MAXIT=60 MULT=2 ICHARG=1 $END
 $SYSTEM MEMDDI=1000 MWORDS=30 $END
 $SCF DIRSCF=.TRUE. $END
 $STATPT OPTTOL=0.0001 NSTEP=999 $END
 $DATA

C1
C 6.0000000 1.1218649249 -1.3917683923 0.0656547234
C 6.0000000 1.7857701736 -0.7055700545 -1.1504038108
C 6.0000000 -0.6367799843 0.1458953275 1.0262127297
C 6.0000000 2.8992970795 0.0846430041 0.7992779179
C 6.0000000 2.2866178737 0.6027637475 -0.4958578778
C 6.0000000 -2.0862173566 -0.1960132628 1.3845427953
C 6.0000000 -1.2795394510 1.2542708777 -1.0046857864
C 6.0000000 -2.9339453958 -0.1591916855 0.1098523629
C 6.0000000 -2.7586965127 1.1548819218 -0.6471315529
C 6.0000000 1.0065057748 -2.9094149277 0.0744883831
C 6.0000000 2.9683152070 1.0665806627 1.9523817684
C 6.0000000 -0.9065852871 2.4166448102 -1.8952098327
H 1.0000000 0.7923692125 0.4350279177 -2.4566160105
H 1.0000000 0.8357031605 -2.9754684181 2.0454029923
H 1.0000000 2.6800642616 1.9730065855 -1.8259148631
H 1.0000000 -1.4652086194 -2.0785334588 1.5452459645
H 1.0000000 2.7639964586 -0.3888433606 3.2535624017
H 1.0000000 -4.4356854714 -1.0805970188 0.9926924537
H 1.0000000 -4.4011912835 0.7337848862 -1.6333887736
H 1.0000000 0.5245385951 2.5922412086 -3.3403299088
O 8.0000000 0.8992059809 -0.5534174638 -2.2702313478
O 8.0000000 0.2883647712 -3.3235371316 1.2866428858
O 8.0000000 3.2392934396 1.3502818977 -1.2840534014
O 8.0000000 -2.1712022078 -1.5129342448 1.9924961577
O 8.0000000 3.3896407208 0.3831990428 3.1675796278
O 8.0000000 -4.3530083393 -0.2746742723 0.4107111299
O 8.0000000 -3.5234176322 1.1384779464 -1.8824624074
O 8.0000000 0.4546803816 2.1335494211 -2.4619046286
O 8.0000000 -0.2601689160 -0.9748360028 0.2095788321
O 8.0000000 1.9269381221 -0.9924895204 1.2202848173
O 8.0000000 -0.5513673238 1.3959452303 0.2839022652
H 1.0000000 2.6704950371 -1.2919351145 -1.4387228144
H 1.0000000 0.3957058735 -3.2252540334 -0.7706512212
H 1.0000000 2.0060127108 -3.3543385389 0.0131539824
H 1.0000000 0.0196800907 0.2491229742 1.8871659364
H 1.0000000 3.8771324837 -0.3724383708 0.6229508761
H 1.0000000 1.4071054348 1.2031846833 -0.2502616933
H 1.0000000 -2.4822435778 0.5339141231 2.0956914257
H 1.0000000 3.7216919903 1.8262993934 1.7335719506
H 1.0000000 1.9886244715 1.5567420271 2.0601594162
H 1.0000000 -0.9496221411 0.3314356390 -1.4821651488
H 1.0000000 -2.5937384029 -0.9747289261 -0.5404539079
H 1.0000000 -3.0449233916 1.9899949996 0.0086426302
H 1.0000000 -1.6527083085 2.4600232206 -2.6944565340
H 1.0000000 -0.8813647277 3.3510723504 -1.3282451047
 $END
