 $BASIS GBASIS=N31 NGAUSS=6 NDFUNC=1 NPFUNC=1 $END
 $CONTRL SCFTYP=RHF RUNTYP=OPTIMIZE DFTTYP=B3LYP MAXIT=60 MULT=1 ICHARG=0 $END 
 $SYSTEM MEMDDI=1000 MWORDS=30 $END
 $STATPT NSTEP=999 $END
 $SCF DIRSCF=.TRUE. $END
 $DATA

C1
C 6.0000000 3.22410 -0.43220 -0.47060
C 6.0000000 -1.19270 -3.24000 -0.09190
C 6.0000000 -1.79610 2.94390 0.16530
C 6.0000000 3.81000 -0.76480 0.90310
C 6.0000000 -1.48560 -1.76350 -0.01920
C 6.0000000 -0.78510 1.83550 0.02290
C 6.0000000 1.81180 0.06720 -0.30670
C 6.0000000 -2.63530 0.18610 0.16430
C 6.0000000 0.83810 -0.91610 -0.23570
C 6.0000000 -2.73690 -1.19350 0.13060
C 6.0000000 0.53790 2.22590 -0.10370
C 6.0000000 1.67150 1.44330 -0.24820
C 6.0000000 -0.54010 -0.74010 -0.08560
C 6.0000000 -1.29090 0.53240 0.03420
H 1.0000000 -3.45800 0.87750 0.27260
H 1.0000000 1.18430 -1.93680 -0.30450
H 1.0000000 -3.66140 -1.74630 0.20930
H 1.0000000 0.70990 3.29200 -0.08740
H 1.0000000 2.59590 1.99620 -0.32730
H 1.0000000 -1.01820 -3.62570 0.91260
H 1.0000000 -2.04240 -3.75750 -0.53720
H 1.0000000 -0.30570 -3.40480 -0.70360
H 1.0000000 -1.93220 3.17820 1.22110
H 1.0000000 -1.44040 3.83000 -0.36050
H 1.0000000 -2.74710 2.62540 -0.26170
H 1.0000000 3.82940 0.33920 -0.94660
H 1.0000000 3.22300 -1.32800 -1.09160
H 1.0000000 4.83160 -1.12610 0.78470
H 1.0000000 3.81110 0.13090 1.52420
H 1.0000000 3.20470 -1.53630 1.37920
 $END
