 $BASIS GBASIS=N21 NGAUSS=3 $END
 $CONTRL SCFTYP=RHF DFTTYP=B3LYP MAXIT=60 MULT=1 ICHARG=0 $END
 $SYSTEM MEMDDI=1000 MWORDS=30 $END
 $SCF DIRSCF=.TRUE. $END
 $ELPOT  IEPOT=1 WHERE=PDC $END
 $PDC PTSEL=CHELPG CONSTR=CHARGE $END
 $DATA

C1
O 8.0000000 2.8402795290 1.6733793566 0.2940617297
C 6.0000000 2.0726880957 0.5156280325 0.7931663662
C 6.0000000 1.0190867708 0.2215583181 -0.2911154777
O 8.0000000 1.5517028450 0.5508948178 -1.5592361253
C 6.0000000 0.5419359914 -1.2495186885 -0.3175054174
H 1.0000000 0.4586594155 -1.5465112412 -1.3698189161
O 8.0000000 1.4506574301 -2.0934550775 0.4357946441
C 6.0000000 -0.8673517604 -1.1977068862 0.2683947529
H 1.0000000 -0.7702952613 -1.1689442757 1.3654695690
O 8.0000000 -1.5960121833 -2.3584427212 -0.2047045769
C 6.0000000 -1.3640388622 0.1731804314 -0.2153341129
H 1.0000000 -1.6194515310 0.1297208912 -1.2800203228
O 8.0000000 -0.1870327646 1.0167389204 0.0499399574
C 6.0000000 -2.5408663815 0.7121833722 0.5744697011
O 8.0000000 -3.1202477491 1.8050571862 -0.1915496148
H 1.0000000 3.7960519275 1.5409604843 0.5224265343
H 1.0000000 2.6952237133 -0.3736560047 0.9112456808
H 1.0000000 1.5626838011 0.7579810193 1.7267557227
H 1.0000000 2.1883310327 1.3042708034 -1.3436715954
H 1.0000000 1.0808729284 -3.0163112519 0.3904812445
H 1.0000000 -2.5056055735 -2.3398831150 0.1968816567
H 1.0000000 -3.2681132172 -0.1062999658 0.7289367337
H 1.0000000 -2.1535069530 1.0257888839 1.5538896499
H 1.0000000 -3.6896511435 2.3422868103 0.4215421162
 $END
