 $BASIS GBASIS=N31 NGAUSS=6 NDFUNC=1 NPFUNC=1 $END
 $CONTRL SCFTYP=RHF RUNTYP=OPTIMIZE DFTTYP=B3LYP MAXIT=60 MULT=1 ICHARG=0 $END 
 $SYSTEM MEMDDI=1000 MWORDS=30 $END
 $STATPT NSTEP=999 $END
 $SCF DIRSCF=.TRUE. $END
 $DATA

C1
C 6.0000000 1.75900 -0.05880 0.10540
C 6.0000000 -0.09680 1.46320 -0.54380
C 6.0000000 -2.71200 -1.68240 0.24270
C 6.0000000 -4.62030 -0.23810 0.07160
C 6.0000000 2.76710 0.38990 0.93890
C 6.0000000 2.06200 -0.84840 -0.98770
C 6.0000000 3.37410 -1.19750 -1.24980
H 1.0000000 -4.44950 2.35790 -1.12020
H 1.0000000 0.57970 3.33040 -0.94040
H 1.0000000 5.27110 -0.11000 2.23770
H 1.0000000 -5.14730 -2.99630 -0.49520
H 1.0000000 6.14600 -0.47380 -1.24350
C 6.0000000 -3.77720 0.85420 -0.05360
C 6.0000000 4.08360 0.04380 0.68200
C 6.0000000 -4.08630 -1.50900 0.22100
C 6.0000000 4.38820 -0.75580 -0.41590
C 6.0000000 -1.51350 1.89580 -0.15800
O 8.0000000 -4.30060 2.09970 -0.20030
O 8.0000000 0.80100 2.56470 -0.39290
O 8.0000000 5.07620 0.48450 1.50040
O 8.0000000 -4.90970 -2.58270 0.34600
O 8.0000000 5.67910 -1.09870 -0.67200
C 6.0000000 0.32740 0.31920 0.38610
C 6.0000000 -1.86470 -0.58700 0.11610
C 6.0000000 -2.39810 0.68150 -0.02940
O 8.0000000 -0.52330 -0.80100 0.13860
H 1.0000000 0.22720 0.63390 1.42480
H 1.0000000 -1.48430 2.42570 0.79410
H 1.0000000 -1.91340 2.55590 -0.92770
H 1.0000000 -0.08650 1.11910 -1.57800
H 1.0000000 -2.29680 -2.67260 0.35870
H 1.0000000 -5.69120 -0.09990 0.05310
H 1.0000000 2.52810 1.01050 1.78980
H 1.0000000 1.27230 -1.19370 -1.63850
H 1.0000000 3.60780 -1.81800 -2.10240
 $END
