 $BASIS GBASIS=N21 NGAUSS=3 $END
 $CONTRL SCFTYP=UHF MAXIT=60 MULT=2 ICHARG=-1 $END
 $SYSTEM MEMDDI=1000 MWORDS=30 $END
 $SCF DIRSCF=.TRUE. $END
 $STATPT OPTTOL=0.0001 NSTEP=999 $END
 $DATA

C1
C 6.0000000 -1.3325916150 0.0708500242 -0.4137541981
H 1.0000000 -1.1302963780 -0.6185936306 -1.2402663453
C 6.0000000 -0.4388630896 -0.2782371527 0.8054787988
C 6.0000000 1.0367623932 -0.1937984185 0.4483441907
C 6.0000000 1.7259535085 1.0232957270 0.5407446877
C 6.0000000 3.0700130883 1.1128043761 0.1715227951
C 6.0000000 3.7452742024 -0.0170017362 -0.2973609268
C 6.0000000 3.0679990408 -1.2349274667 -0.3942065418
C 6.0000000 1.7235985824 -1.3203848433 -0.0247054454
H 1.0000000 -0.6609770157 0.4117600005 1.6288775686
H 1.0000000 -0.6752607880 -1.2916709946 1.1518925659
H 1.0000000 1.2069026027 1.9027900501 0.9092872995
H 1.0000000 3.5898386530 2.0610810663 0.2533011461
H 1.0000000 4.7893825784 0.0503686603 -0.5816659420
H 1.0000000 3.5860556132 -2.1175102670 -0.7533043217
H 1.0000000 1.2024233478 -2.2699357363 -0.0980300720
H 1.0000000 -2.3947755488 0.0037356837 -0.1510568460
H 1.0000000 -1.1208691755 1.0884446579 -0.7593084133
 $END
