 $BASIS GBASIS=N31 NGAUSS=6 NDFUNC=1 NPFUNC=1 $END
 $CONTRL SCFTYP=RHF RUNTYP=OPTIMIZE DFTTYP=B3LYP MAXIT=60 MULT=1 ICHARG=0 $END 
 $SYSTEM MEMDDI=1000 MWORDS=30 $END
 $STATPT NSTEP=999 $END
 $SCF DIRSCF=.TRUE. $END
 $DATA

C1
C 6.0000000 3.27470 -0.84890 0.15350
C 6.0000000 3.90780 0.31770 -0.02180
C 6.0000000 0.81180 -3.49110 -0.74460
C 6.0000000 0.37430 3.62850 0.73180
C 6.0000000 -4.31230 1.32350 -0.23240
C 6.0000000 0.68030 -1.31820 0.20770
C 6.0000000 0.50620 1.45150 -0.21980
O 8.0000000 -1.80560 -2.66990 0.39800
O 8.0000000 0.76340 -2.65700 0.41480
O 8.0000000 0.42340 2.79450 -0.42750
C 6.0000000 -1.81540 -1.46470 0.21240
C 6.0000000 -3.00470 0.58430 -0.11040
C 6.0000000 -0.56410 -0.69540 0.10300
C 6.0000000 -0.65080 0.69550 -0.11210
O 8.0000000 -1.86640 1.27890 -0.21010
C 6.0000000 -3.03460 -0.74420 0.09240
C 6.0000000 1.83810 -0.54730 0.09730
C 6.0000000 1.75240 0.84000 -0.11680
O 8.0000000 3.01520 1.31150 -0.18080
H 1.0000000 -3.98010 -1.26100 0.16550
H 1.0000000 3.72880 -1.81750 0.30170
H 1.0000000 0.87700 -4.53520 -0.43860
H 1.0000000 -0.09060 -3.34180 -1.33750
H 1.0000000 1.68600 -3.23230 -1.34200
H 1.0000000 -0.50050 3.37000 1.32860
H 1.0000000 1.27610 3.47900 1.32550
H 1.0000000 0.30970 4.67270 0.42580
H 1.0000000 -4.11660 2.38350 -0.39440
H 1.0000000 -4.87740 0.92540 -1.07520
H 1.0000000 -4.88850 1.19620 0.68400
H 1.0000000 4.98050 0.44290 -0.03320
 $END
