 $BASIS GBASIS=N21 NGAUSS=3 $END
 $CONTRL SCFTYP=RHF DFTTYP=B3LYP MAXIT=60 MULT=1 ICHARG=0 $END
 $SYSTEM MEMDDI=1000 MWORDS=30 $END
 $SCF DIRSCF=.TRUE. $END
 $ELPOT  IEPOT=1 WHERE=PDC $END
 $PDC PTSEL=CHELPG CONSTR=CHARGE $END
 $DATA

C1
C 6.0000000 0.6102413541 -0.8877648425 -0.6524681532
H 1.0000000 1.9127980110 0.7996201210 1.5268488244
O 8.0000000 -1.6958326254 -0.9533968023 1.2782296858
O 8.0000000 3.4115466098 -0.3820166725 1.2668025997
O 8.0000000 -3.0690250304 0.4810259059 -0.5920173835
O 8.0000000 -1.2101425729 1.7105488961 0.6971525770
O 8.0000000 1.2864864861 1.0044765488 0.7660763589
O 8.0000000 -0.5957751672 -0.1583691844 -1.0525508738
H 1.0000000 -3.7942645129 -0.1403979031 -0.3147732699
H 1.0000000 -0.1902768495 1.7262023119 0.7939258260
C 6.0000000 1.7117693448 0.1445099613 -0.3289670532
C 6.0000000 2.9778155780 -0.5588320513 0.1230522540
P 15.0000000 -1.6542889618 0.1970092905 0.2326425210
H 1.0000000 0.3985443348 -1.5017104589 0.2303246898
H 1.0000000 0.9093196074 -1.5121857079 -1.4969781407
H 1.0000000 1.9037897784 0.7441951507 -1.2264409746
H 1.0000000 3.4551946157 -1.2313145632 -0.6024596877
 $END
