 $BASIS GBASIS=N21 NGAUSS=3 $END
 $CONTRL SCFTYP=RHF RUNTYP=OPTIMIZE DFTTYP=B3LYP MAXIT=60 MULT=1 ICHARG=0 $END 
 $SYSTEM MEMDDI=1000 MWORDS=30 $END
 $STATPT NSTEP=999 $END
 $SCF DIRSCF=.TRUE. $END
 $DATA

C1
C 6.0000000 0.60990980 -0.90281210 -0.34573740
H 1.0000000 2.17536760 1.28422660 1.16599910
O 8.0000000 -2.50893400 -1.27219270 0.76020130
O 8.0000000 3.75048570 -0.01369140 0.87229520
O 8.0000000 -2.76758890 0.89896910 -0.65984380
O 8.0000000 -1.23116430 0.90391740 1.37577330
O 8.0000000 1.41531100 1.20339530 0.55900160
O 8.0000000 -0.60559030 -0.29110280 -0.79103030
H 1.0000000 -3.61868580 0.47039270 -0.83299150
H 1.0000000 -0.33644310 1.24821760 1.16115870
C 6.0000000 1.71467310 0.16283450 -0.35592760
C 6.0000000 3.07427470 -0.43455860 -0.04470720
P 15.0000000 -1.83925290 -0.05530000 0.24950050
H 1.0000000 0.49996590 -1.33693210 0.65488910
H 1.0000000 0.84951240 -1.70510960 -1.05146590
H 1.0000000 1.76136650 0.58095160 -1.37538170
H 1.0000000 3.42469260 -1.25960550 -0.69333360
 $END
