 $BASIS GBASIS=N31 NGAUSS=6 NDFUNC=1 NPFUNC=1 $END
 $CONTRL SCFTYP=RHF RUNTYP=OPTIMIZE DFTTYP=B3LYP MAXIT=60 MULT=1 ICHARG=0 $END 
 $SYSTEM MEMDDI=1000 MWORDS=30 $END
 $STATPT NSTEP=999 $END
 $SCF DIRSCF=.TRUE. $END
 $DATA

C1
C 6.0000000 3.62740 -0.65280 -0.00440
C 6.0000000 2.48140 0.32580 -0.00490
O 8.0000000 2.70230 1.51850 -0.01150
C 6.0000000 1.09710 -0.16450 0.00260
C 6.0000000 0.03060 0.74300 0.00220
C 6.0000000 -1.26830 0.27600 0.00940
O 8.0000000 -2.30650 1.15440 0.00850
C 6.0000000 -1.97950 2.54540 0.00000
C 6.0000000 -1.51630 -1.09670 0.01700
O 8.0000000 -2.79460 -1.55330 0.02410
C 6.0000000 -0.45900 -1.99770 0.01700
C 6.0000000 0.83970 -1.54080 0.00450
H 1.0000000 4.57100 -0.10720 -0.01060
H 1.0000000 3.57340 -1.27510 0.88880
H 1.0000000 3.56670 -1.28380 -0.89110
H 1.0000000 0.22380 1.80560 -0.00340
H 1.0000000 -1.39290 2.78620 0.88660
H 1.0000000 -1.39930 2.77680 -0.89330
H 1.0000000 -2.89670 3.13430 0.00020
H 1.0000000 -3.16830 -1.69000 -0.85730
H 1.0000000 -0.65620 -3.05950 0.02300
H 1.0000000 1.65970 -2.24360 0.00460
 $END
