 $BASIS GBASIS=N21 NGAUSS=3 $END
 $CONTRL SCFTYP=RHF DFTTYP=B3LYP MAXIT=60 MULT=1 ICHARG=0 $END
 $SYSTEM MEMDDI=1000 MWORDS=30 $END
 $SCF DIRSCF=.TRUE. $END
 $ELPOT  IEPOT=1 WHERE=PDC $END
 $PDC PTSEL=GEODESIC CONSTR=CHARGE $END
 $DATA

C1
C 6.0000000 0.7768804930 -0.8506832387 0.1156484895
H 1.0000000 2.1760863871 0.1666447778 -1.0135279030
H 1.0000000 2.1688412990 0.6025425501 0.5894630030
O 8.0000000 -0.3635225545 1.2150951238 -0.5732592945
O 8.0000000 -1.5965475292 -0.6231806922 0.0326933731
C 6.0000000 -0.4131728702 0.0537441959 -0.1864022053
H 1.0000000 -2.3574447685 -0.0115380560 -0.1774226156
N 7.0000000 2.0737126196 -0.1871128237 -0.0569628468
H 1.0000000 0.6753066106 -1.2192260255 1.1419168956
H 1.0000000 0.7132303132 -1.7260158115 -0.5404268960
 $END
