 $BASIS GBASIS=N31 NGAUSS=6 NDFUNC=1 NPFUNC=1 $END
 $CONTRL SCFTYP=RHF RUNTYP=OPTIMIZE DFTTYP=B3LYP MAXIT=60 MULT=1 ICHARG=0 $END 
 $SYSTEM MEMDDI=1000 MWORDS=30 $END
 $STATPT NSTEP=999 $END
 $SCF DIRSCF=.TRUE. $END
 $DATA

C1
C 6.0000000 7.84630 -0.11080 -2.09200
C 6.0000000 6.55930 0.44380 -1.47800
C 6.0000000 6.29190 -0.25010 -0.14080
H 1.0000000 6.27420 -1.32980 -0.28890
C 6.0000000 4.94190 0.21110 0.41210
C 6.0000000 3.82220 -0.25880 -0.51870
C 6.0000000 2.47220 0.20240 0.03430
H 1.0000000 2.36070 -0.14870 1.06010
C 6.0000000 2.40560 1.73070 0.00820
C 6.0000000 1.34540 -0.37200 -0.82670
H 1.0000000 1.45200 -0.03840 -1.85890
C 6.0000000 1.35370 -1.91950 -0.75910
C 6.0000000 -0.04810 -2.34340 -0.24200
C 6.0000000 -0.93070 -1.15080 -0.62690
H 1.0000000 -1.14190 -1.16450 -1.69620
C 6.0000000 -2.21760 -0.99960 0.16300
H 1.0000000 -1.98780 -0.91420 1.22500
C 6.0000000 -3.12160 -2.21000 -0.07150
C 6.0000000 -4.41010 -2.06880 0.74720
C 6.0000000 -5.04720 -0.74010 0.37680
C 6.0000000 -6.31590 -0.72480 -0.02260
C 6.0000000 -6.92200 0.55340 -0.42170
C 6.0000000 -5.96220 1.62050 -0.91320
C 6.0000000 -4.87430 1.78680 0.14710
C 6.0000000 -4.19190 0.48400 0.48060
C 6.0000000 -3.74610 0.58300 1.94080
C 6.0000000 -2.90610 0.28750 -0.32240
H 1.0000000 -3.15520 0.17490 -1.37760
C 6.0000000 -2.00230 1.50350 -0.14600
C 6.0000000 -0.63850 1.29920 -0.82510
C 6.0000000 -0.01130 0.05050 -0.27220
C 6.0000000 0.05860 0.13770 1.25370
O 8.0000000 -8.11880 0.74360 -0.36210
C 6.0000000 7.39950 0.11060 0.85120
C 6.0000000 7.33470 1.60640 1.16630
C 6.0000000 7.20990 -0.69080 2.14070
H 1.0000000 8.69370 0.15320 -1.45940
H 1.0000000 7.77410 -1.19570 -2.16870
H 1.0000000 7.98780 0.31510 -3.08530
H 1.0000000 6.66680 1.51620 -1.31580
H 1.0000000 5.72520 0.26060 -2.15550
H 1.0000000 4.79160 -0.21360 1.40460
H 1.0000000 4.92820 1.29910 0.47660
H 1.0000000 3.97260 0.16600 -1.51120
H 1.0000000 3.83590 -1.34680 -0.58320
H 1.0000000 2.51720 2.08180 -1.01760
H 1.0000000 1.44380 2.05920 0.40210
H 1.0000000 3.20840 2.13990 0.62160
H 1.0000000 1.52820 -2.33630 -1.75110
H 1.0000000 2.12560 -2.25970 -0.06880
H 1.0000000 -0.38590 -3.25070 -0.74290
H 1.0000000 -0.03510 -2.48050 0.83920
H 1.0000000 -3.37120 -2.27540 -1.13050
H 1.0000000 -2.59790 -3.11670 0.23170
H 1.0000000 -5.09160 -2.88510 0.50780
H 1.0000000 -4.17530 -2.08230 1.81150
H 1.0000000 -6.89210 -1.63770 -0.05290
H 1.0000000 -5.51430 1.30890 -1.85690
H 1.0000000 -6.49390 2.56240 -1.04840
H 1.0000000 -4.12850 2.49200 -0.21990
H 1.0000000 -5.32400 2.19180 1.05370
H 1.0000000 -4.61750 0.73840 2.57700
H 1.0000000 -3.24460 -0.34030 2.23090
H 1.0000000 -3.05880 1.42120 2.05490
H 1.0000000 -2.48980 2.37530 -0.58220
H 1.0000000 -1.84690 1.67980 0.91830
H 1.0000000 -0.77450 1.16540 -1.89830
H 1.0000000 0.00300 2.15980 -0.63580
H 1.0000000 -0.93610 0.33760 1.65220
H 1.0000000 0.42780 -0.80610 1.65500
H 1.0000000 0.73380 0.94370 1.54100
H 1.0000000 8.36960 -0.12720 0.41500
H 1.0000000 7.46980 2.17730 0.24760
H 1.0000000 6.36460 1.84420 1.60260
H 1.0000000 8.12380 1.86330 1.87300
H 1.0000000 7.33780 -1.75270 1.93060
H 1.0000000 7.94880 -0.37460 2.87700
H 1.0000000 6.20810 -0.51620 2.53310
 $END
