 $BASIS GBASIS=N21 NGAUSS=3 $END
 $CONTRL SCFTYP=RHF RUNTYP=OPTIMIZE DFTTYP=B3LYP MAXIT=60 MULT=1 ICHARG=0 $END 
 $SYSTEM MEMDDI=1000 MWORDS=30 $END
 $STATPT NSTEP=999 $END
 $SCF DIRSCF=.TRUE. $END
 $DATA

C1
C 6.0000000 1.42193 0.35254 0.47706
H 1.0000000 1.43526 0.15452 1.55530
C 6.0000000 0.18724 -0.26589 -0.18576
C 6.0000000 -1.13561 0.26621 0.38011
C 6.0000000 -2.37389 -0.34638 -0.28424
C 6.0000000 -3.69339 0.17443 0.28888
N 7.0000000 -4.83518 -0.41046 -0.42487
H 1.0000000 0.21846 -0.07836 -1.26774
H 1.0000000 0.21654 -1.35809 -0.06775
H 1.0000000 -1.16624 0.07745 1.46322
H 1.0000000 -1.16317 1.35963 0.26329
H 1.0000000 -2.36331 -0.14969 -1.36362
H 1.0000000 -2.34199 -1.44100 -0.17123
H 1.0000000 -3.70639 -0.00340 1.38071
H 1.0000000 -3.73908 1.26311 0.15412
H 1.0000000 -4.86868 -1.41293 -0.24682
H 1.0000000 -5.70482 -0.03276 -0.05487
H 1.0000000 2.34841 -0.05037 0.05432
H 1.0000000 1.44131 1.44048 0.34250
 $END
