 $BASIS GBASIS=N21 NGAUSS=3 $END
 $CONTRL SCFTYP=RHF MAXIT=60 MULT=1 ICHARG=0 $END
 $SYSTEM MEMDDI=1000 MWORDS=30 $END
 $SCF DIRSCF=.TRUE. $END
 $DATA

C1
C 6.0000000 1.4324414348 0.3605472402 0.4744060451
H 1.0000000 1.4328480696 0.1609517568 1.5528676662
C 6.0000000 0.1940749575 -0.2746130033 -0.1945361431
C 6.0000000 -1.1297201168 0.2686470497 0.3882790394
C 6.0000000 -2.3740033780 -0.3556198154 -0.2774338276
C 6.0000000 -3.6923962825 0.1732930187 0.3176731882
N 7.0000000 -4.8410802466 -0.4174382083 -0.4109315568
H 1.0000000 0.2173621931 -0.0791536048 -1.2749764291
H 1.0000000 0.2231287117 -1.3648749374 -0.0625046000
H 1.0000000 -1.1532142929 0.0714890563 1.4697897997
H 1.0000000 -1.1573324643 1.3601262841 0.2576151661
H 1.0000000 -2.3812386103 -0.1449417311 -1.3529953093
H 1.0000000 -2.3392513614 -1.4487753719 -0.1564136968
H 1.0000000 -3.6908668981 -0.0123205448 1.4095540659
H 1.0000000 -3.7332598515 1.2599055303 0.1740714606
H 1.0000000 -4.8912439826 -1.4320507538 -0.2680630178
H 1.0000000 -5.7318093132 0.0071927823 -0.1344214936
H 1.0000000 2.3602414625 -0.0411189934 0.0511897151
H 1.0000000 1.4327199691 1.4477942458 0.3294399277
 $END
