 $BASIS GBASIS=N31 NGAUSS=6 NDFUNC=1 NPFUNC=1 $END
 $CONTRL SCFTYP=RHF RUNTYP=OPTIMIZE DFTTYP=B3LYP MAXIT=60 MULT=1 ICHARG=0 $END 
 $SYSTEM MEMDDI=1000 MWORDS=30 $END
 $STATPT NSTEP=999 $END
 $SCF DIRSCF=.TRUE. $END
 $DATA

C1
C 6.0000000 0.59590 -0.42270 0.23550
C 6.0000000 1.36730 -1.64040 -0.28020
C 6.0000000 2.79930 -1.59500 0.26180
C 6.0000000 3.45070 -0.27370 -0.15800
C 6.0000000 2.59890 0.89120 0.35300
C 6.0000000 -1.56790 0.60750 0.19600
C 6.0000000 -3.86410 0.53720 1.18990
C 6.0000000 -3.44990 -0.69000 -0.82380
C 6.0000000 -5.17770 0.10690 1.18190
C 6.0000000 -4.76350 -1.12020 -0.83190
C 6.0000000 -5.62740 -0.72190 0.17110
C 6.0000000 3.21060 2.21370 -0.11350
H 1.0000000 -0.18830 -2.92900 -0.13630
H 1.0000000 3.18710 -3.55770 -0.05200
H 1.0000000 5.35720 -0.89680 0.12180
H 1.0000000 2.81740 4.17450 0.20570
C 6.0000000 -3.00010 0.13850 0.18720
O 8.0000000 0.72540 -2.83650 0.16630
O 8.0000000 3.54780 -2.68830 -0.27340
O 8.0000000 4.76210 -0.18840 0.40320
O 8.0000000 2.48390 3.30280 0.45900
O 8.0000000 -0.72430 -0.42840 -0.31120
O 8.0000000 1.27180 0.77150 -0.16340
C 6.0000000 -1.43840 1.80450 -0.65090
N 7.0000000 -1.33850 2.72830 -1.30450
H 1.0000000 -1.27150 0.85050 1.21640
H 1.0000000 0.53930 -0.46230 1.32330
H 1.0000000 1.38950 -1.62280 -1.36980
H 1.0000000 2.77980 -1.66410 1.34940
H 1.0000000 3.51590 -0.22790 -1.24500
H 1.0000000 2.56840 0.86880 1.44230
H 1.0000000 4.25190 2.26460 0.20460
H 1.0000000 3.15940 2.27420 -1.20060
H 1.0000000 -3.51390 1.18830 1.97720
H 1.0000000 -2.77480 -1.00140 -1.60720
H 1.0000000 -5.85270 0.41800 1.96550
H 1.0000000 -5.11500 -1.76710 -1.62200
H 1.0000000 -6.65380 -1.05800 0.16480
 $END
