 $BASIS GBASIS=N21 NGAUSS=3 $END
 $CONTRL SCFTYP=RHF RUNTYP=OPTIMIZE DFTTYP=B3LYP MAXIT=60 MULT=1 ICHARG=0 $END 
 $SYSTEM MEMDDI=1000 MWORDS=30 $END
 $STATPT NSTEP=999 $END
 $SCF DIRSCF=.TRUE. $END
 $DATA

C1
N 7.0000000 1.22463 1.79044 -0.23888
C 6.0000000 1.11600 0.46040 0.34582
H 1.0000000 1.12360 0.56154 1.43842
C 6.0000000 -0.21243 -0.21053 -0.07563
C 6.0000000 -1.42462 0.55708 0.45453
C 6.0000000 -2.73379 0.05396 -0.10468
O 8.0000000 -2.87194 -0.68382 -1.05886
O 8.0000000 -3.79552 0.54733 0.58572
C 6.0000000 2.28243 -0.46092 -0.02684
O 8.0000000 3.03564 -0.29343 -0.96260
O 8.0000000 2.37972 -1.52294 0.81076
H 1.0000000 1.98847 2.31167 0.18318
H 1.0000000 1.43873 1.71637 -1.23176
H 1.0000000 -0.25848 -0.25901 -1.16970
H 1.0000000 -0.23282 -1.24304 0.28766
H 1.0000000 -1.47994 0.51926 1.54902
H 1.0000000 -1.33701 1.61889 0.19178
H 1.0000000 -4.59836 0.20780 0.15428
H 1.0000000 3.11472 -2.07783 0.49675
 $END
