 $BASIS GBASIS=N31 NGAUSS=6 NDFUNC=1 NPFUNC=1 $END
 $CONTRL SCFTYP=RHF RUNTYP=OPTIMIZE DFTTYP=B3LYP MAXIT=60 MULT=1 ICHARG=0 $END 
 $SYSTEM MEMDDI=1000 MWORDS=30 $END
 $STATPT NSTEP=999 $END
 $SCF DIRSCF=.TRUE. $END
 $DATA

C1
C 6.0000000 -0.13290 -0.26580 0.70920
C 6.0000000 -1.98730 1.40540 -0.52300
C 6.0000000 -0.72950 1.88550 -0.23040
H 1.0000000 -2.11520 -2.12380 1.60250
H 1.0000000 -3.64070 -0.77240 -1.37350
C 6.0000000 -1.39540 -0.73860 0.41190
C 6.0000000 -2.32600 0.09700 -0.20560
C 6.0000000 0.20980 1.05350 0.38910
O 8.0000000 1.45680 -0.64220 -0.86490
O 8.0000000 -1.73170 -2.01960 0.72090
O 8.0000000 3.56500 -1.21480 -0.45350
O 8.0000000 -3.56740 -0.37070 -0.49700
C 6.0000000 2.51330 -0.37980 -0.32200
H 1.0000000 3.38320 -1.99390 -0.99670
C 6.0000000 2.63960 0.80340 0.44880
C 6.0000000 1.55190 1.56320 0.70330
H 1.0000000 3.60540 1.09730 0.83250
H 1.0000000 1.66870 2.54510 1.13760
H 1.0000000 0.58700 -0.91050 1.19140
H 1.0000000 -2.71170 2.04860 -1.00050
H 1.0000000 -0.46890 2.90390 -0.47810
 $END
