 $BASIS GBASIS=N31 NGAUSS=6 NDFUNC=1 NPFUNC=1 $END
 $CONTRL SCFTYP=RHF RUNTYP=OPTIMIZE DFTTYP=B3LYP MAXIT=60 MULT=1 ICHARG=0 $END 
 $SYSTEM MEMDDI=1000 MWORDS=30 $END
 $STATPT NSTEP=999 $END
 $SCF DIRSCF=.TRUE. $END
 $DATA

C1
C 6.0000000 1.68410 -0.59240 -0.37020
C 6.0000000 0.24310 -0.69550 0.08570
C 6.0000000 2.19660 0.79630 0.10340
C 6.0000000 -0.54520 0.37510 -0.68000
C 6.0000000 3.70730 0.69040 -0.06880
C 6.0000000 4.03700 -0.81110 0.12420
C 6.0000000 -2.82000 1.36150 -0.60300
C 6.0000000 -3.92670 -0.97320 0.35390
C 6.0000000 -4.17440 1.30340 -0.35320
C 6.0000000 1.86100 0.98920 1.58370
H 1.0000000 5.33950 1.44670 0.86130
H 1.0000000 4.91630 -2.26160 -0.98230
H 1.0000000 -6.31650 0.30960 1.27270
C 6.0000000 -4.73360 0.12800 0.12710
C 6.0000000 2.67710 -1.53650 0.31610
C 6.0000000 -0.36350 -2.05730 -0.25220
C 6.0000000 1.48880 1.85980 -0.70910
C 6.0000000 -0.01520 1.77150 -0.38730
C 6.0000000 -1.74330 -2.14170 0.39920
O 8.0000000 4.37480 1.47530 0.92130
O 8.0000000 4.70510 -1.31920 -1.03230
O 8.0000000 -6.06840 0.05790 0.37260
C 6.0000000 -2.01070 0.25610 -0.37870
C 6.0000000 -2.56170 -0.91200 0.10630
H 1.0000000 1.74710 -0.67470 -1.45520
H 1.0000000 0.18090 -0.50340 1.15680
H 1.0000000 -0.40690 0.19380 -1.74590
H 1.0000000 2.44150 -1.64030 1.37530
H 1.0000000 2.68640 -2.50960 -0.17500
H 1.0000000 -0.46050 -2.15850 -1.33320
H 1.0000000 0.27540 -2.85070 0.13590
H 1.0000000 3.99730 1.01700 -1.06750
H 1.0000000 1.86750 2.84520 -0.43750
H 1.0000000 1.65040 1.68120 -1.77210
H 1.0000000 2.28360 0.16770 2.16210
H 1.0000000 2.28160 1.93270 1.93160
H 1.0000000 0.77860 1.00480 1.71180
H 1.0000000 4.66170 -0.94740 1.00700
H 1.0000000 -0.55600 2.49600 -0.99630
H 1.0000000 -0.17120 2.00140 0.66670
H 1.0000000 -2.26610 -3.01810 0.01610
H 1.0000000 -1.62340 -2.24220 1.47790
H 1.0000000 -2.38410 2.27610 -0.97730
H 1.0000000 -4.36250 -1.88820 0.72710
H 1.0000000 -4.79660 2.16830 -0.52930
 $END
