 $BASIS GBASIS=N21 NGAUSS=3 $END
 $CONTRL SCFTYP=UHF MAXIT=60 MULT=2 ICHARG=1 $END
 $SYSTEM MEMDDI=1000 MWORDS=30 $END
 $SCF DIRSCF=.TRUE. $END
 $STATPT OPTTOL=0.0001 NSTEP=999 $END
 $DATA

C1
N 7.0000000 0.3360509974 1.6747519527 -0.0274699152
C 6.0000000 0.4338625972 0.2553231430 0.2697602352
H 1.0000000 0.3122053622 0.0811601284 1.3451999993
C 6.0000000 -0.5880255242 -0.6702831495 -0.4684909858
C 6.0000000 -2.0087374821 -0.2836871455 -0.1362763379
O 8.0000000 -2.3979459459 0.7890790990 0.3230071450
O 8.0000000 -2.8730133564 -1.3133591859 -0.4359877930
C 6.0000000 1.8211869013 -0.2203412754 -0.1181217665
O 8.0000000 2.6445958990 0.3853141703 -0.7903207220
O 8.0000000 2.0230202375 -1.5042100094 0.3529002332
H 1.0000000 0.7951519795 1.9225544011 -0.9044219092
H 1.0000000 -0.6185818183 2.0171528634 0.0721589477
H 1.0000000 -0.4515067974 -0.5609527254 -1.5534873936
H 1.0000000 -0.4211756900 -1.7181646029 -0.2103093752
H 1.0000000 -3.8036816836 -1.0150755305 -0.2298818438
H 1.0000000 2.9253643238 -1.8117821334 0.0585814817
 $END
