 $BASIS GBASIS=N21 NGAUSS=3 $END
 $CONTRL SCFTYP=RHF RUNTYP=OPTIMIZE DFTTYP=B3LYP MAXIT=60 MULT=1 ICHARG=0 $END 
 $SYSTEM MEMDDI=1000 MWORDS=30 $END
 $STATPT NSTEP=999 $END
 $SCF DIRSCF=.TRUE. $END
 $DATA

C1
N 7.0000000 0.38707 1.65657 -0.04523
C 6.0000000 0.44058 0.23315 0.23626
H 1.0000000 0.31620 0.08883 1.31402
C 6.0000000 -0.60873 -0.65224 -0.48811
C 6.0000000 -2.02646 -0.33468 -0.06643
O 8.0000000 -2.35989 0.50684 0.74307
O 8.0000000 -2.92330 -1.11966 -0.70973
C 6.0000000 1.81828 -0.28788 -0.15369
O 8.0000000 2.49063 0.13900 -1.06682
O 8.0000000 2.19826 -1.33942 0.61160
H 1.0000000 0.65014 1.85976 -1.00551
H 1.0000000 -0.53415 2.02993 0.15835
H 1.0000000 -0.53637 -0.52200 -1.57543
H 1.0000000 -0.43461 -1.71764 -0.28923
H 1.0000000 -3.80877 -0.86773 -0.39471
H 1.0000000 3.05989 -1.64535 0.27843
 $END
