 $BASIS GBASIS=N31 NGAUSS=6 NDFUNC=1 NPFUNC=1 $END
 $CONTRL SCFTYP=RHF RUNTYP=OPTIMIZE DFTTYP=B3LYP MAXIT=60 MULT=1 ICHARG=0 $END 
 $SYSTEM MEMDDI=1000 MWORDS=30 $END
 $STATPT NSTEP=999 $END
 $SCF DIRSCF=.TRUE. $END
 $DATA

C1
C 6.0000000 4.03920 0.29970 -0.00610
C 6.0000000 2.67920 -0.10100 -0.00210
C 6.0000000 1.70060 0.83040 -0.00090
C 6.0000000 0.29090 0.41500 0.00320
C 6.0000000 -0.72430 1.37850 0.00450
C 6.0000000 -2.04860 0.98420 0.00790
O 8.0000000 -3.03570 1.91960 0.00870
C 6.0000000 -2.63080 3.29010 0.00590
C 6.0000000 -2.37370 -0.37010 0.01000
O 8.0000000 -3.67740 -0.75420 0.01280
C 6.0000000 -1.36620 -1.33180 0.00870
O 8.0000000 -1.68840 -2.65300 0.01080
C 6.0000000 -0.60510 -3.58500 0.00930
C 6.0000000 -0.03970 -0.94500 0.00000
O 8.0000000 4.32480 1.48220 -0.00840
O 8.0000000 5.01660 -0.63050 -0.00170
H 1.0000000 2.42560 -1.15080 -0.00010
H 1.0000000 1.95420 1.88020 -0.00290
H 1.0000000 -0.47290 2.42890 0.00320
H 1.0000000 -2.03700 3.49170 -0.88560
H 1.0000000 -3.51340 3.92970 0.00690
H 1.0000000 -2.03320 3.49420 0.89430
H 1.0000000 -4.05630 -0.86640 -0.86970
H 1.0000000 0.00350 -3.43330 -0.88220
H 1.0000000 0.00740 -3.43150 0.89770
H 1.0000000 -0.99990 -4.60100 0.01120
H 1.0000000 0.74110 -1.69120 -0.00100
H 1.0000000 5.91050 -0.26180 -0.00490
 $END
