 $BASIS GBASIS=N31 NGAUSS=6 NDFUNC=1 NPFUNC=1 $END
 $CONTRL SCFTYP=RHF RUNTYP=OPTIMIZE DFTTYP=B3LYP MAXIT=60 MULT=1 ICHARG=0 $END 
 $SYSTEM MEMDDI=1000 MWORDS=30 $END
 $STATPT NSTEP=999 $END
 $SCF DIRSCF=.TRUE. $END
 $DATA

C1
C 6.0000000 0.73350 0.21730 0.58840
C 6.0000000 -0.73350 -0.21730 0.58840
C 6.0000000 3.76640 -0.86190 -0.10400
C 6.0000000 3.34330 1.26040 -1.12860
C 6.0000000 -3.76640 0.86190 -0.10400
C 6.0000000 -3.34330 -1.26040 -1.12860
C 6.0000000 4.69320 1.55690 -1.08020
C 6.0000000 -4.69320 -1.55690 -1.08020
C 6.0000000 5.58270 0.64630 -0.54430
C 6.0000000 -5.58270 -0.64630 -0.54430
C 6.0000000 1.40910 -0.26770 -0.69580
C 6.0000000 0.81330 1.74340 0.66170
C 6.0000000 -1.40910 0.26770 -0.69580
C 6.0000000 -0.81330 -1.74340 0.66170
H 1.0000000 0.26110 3.15160 2.00830
H 1.0000000 -0.26110 -3.15160 2.00830
H 1.0000000 6.35520 -2.08800 -0.17080
H 1.0000000 -6.35520 2.08800 -0.17080
C 6.0000000 2.88070 0.05240 -0.64110
C 6.0000000 -2.88070 -0.05240 -0.64110
C 6.0000000 5.12080 -0.56690 -0.05430
C 6.0000000 -5.12080 0.56690 -0.05430
O 8.0000000 0.24450 2.19160 1.89360
O 8.0000000 -0.24450 -2.19160 1.89360
O 8.0000000 5.99400 -1.46440 0.47390
O 8.0000000 -5.99400 1.46440 0.47390
H 1.0000000 1.24050 -0.21490 1.45120
H 1.0000000 -1.24050 0.21490 1.45120
H 1.0000000 1.27490 -1.34510 -0.79240
H 1.0000000 0.96010 0.23270 -1.55380
H 1.0000000 1.85630 2.05570 0.60820
H 1.0000000 0.26110 2.17660 -0.17230
H 1.0000000 -1.27490 1.34510 -0.79240
H 1.0000000 -0.96010 -0.23270 -1.55380
H 1.0000000 -1.85630 -2.05570 0.60820
H 1.0000000 -0.26110 -2.17660 -0.17230
H 1.0000000 3.40390 -1.80370 0.28080
H 1.0000000 2.64930 1.97400 -1.54780
H 1.0000000 -3.40390 1.80370 0.28080
H 1.0000000 -2.64930 -1.97400 -1.54780
H 1.0000000 5.05220 2.50120 -1.46210
H 1.0000000 -5.05220 -2.50120 -1.46210
H 1.0000000 6.63680 0.87820 -0.50700
H 1.0000000 -6.63680 -0.87820 -0.50700
 $END
