 $BASIS GBASIS=N21 NGAUSS=3 $END
 $CONTRL SCFTYP=RHF RUNTYP=OPTIMIZE DFTTYP=B3LYP MAXIT=60 MULT=1 ICHARG=0 $END 
 $SYSTEM MEMDDI=1000 MWORDS=30 $END
 $STATPT NSTEP=999 $END
 $SCF DIRSCF=.TRUE. $END
 $DATA

C1
C 6.0000000 1.13809 0.52621 0.47065
H 1.0000000 1.14905 0.65240 1.55999
C 6.0000000 -0.11243 -0.22227 0.00232
C 6.0000000 -1.40941 0.50657 0.36056
C 6.0000000 -2.65350 -0.20062 -0.17838
N 7.0000000 -3.83235 0.18205 0.40568
O 8.0000000 -2.61368 -1.04206 -1.06437
H 1.0000000 -0.08617 -0.37149 -1.08175
H 1.0000000 -0.13434 -1.22738 0.44023
H 1.0000000 -1.49887 0.63135 1.44849
H 1.0000000 -1.39746 1.52344 -0.05995
H 1.0000000 -3.88335 0.94063 1.06630
H 1.0000000 -4.68986 -0.17844 0.01494
H 1.0000000 2.04824 -0.01504 0.19238
H 1.0000000 1.19779 1.52558 0.02291
 $END
