 $BASIS GBASIS=N21 NGAUSS=3 $END
 $CONTRL SCFTYP=UHF MAXIT=60 MULT=2 ICHARG=-1 $END
 $SYSTEM MEMDDI=1000 MWORDS=30 $END
 $SCF DIRSCF=.TRUE. $END
 $STATPT OPTTOL=0.0001 NSTEP=999 $END
 $DATA

C1
C 6.0000000 1.1433211030 0.5366695028 0.4569541804
H 1.0000000 1.1643909239 0.6289685477 1.5500033214
C 6.0000000 -0.1158979684 -0.2206689394 -0.0090054925
C 6.0000000 -1.4119192511 0.4935443493 0.4081145638
C 6.0000000 -2.6457911351 -0.2282535476 -0.1494427326
N 7.0000000 -3.8381282023 0.2566756089 0.3227746438
O 8.0000000 -2.5726546758 -1.1586840620 -0.9653422622
H 1.0000000 -0.1176237628 -0.3315030644 -1.0982136580
H 1.0000000 -0.1213466703 -1.2354787295 0.4052923169
H 1.0000000 -1.4854634607 0.5531003971 1.5025543621
H 1.0000000 -1.4111822697 1.5251056367 0.0257006657
H 1.0000000 -3.8888500039 1.0147694469 0.9915810881
H 1.0000000 -4.6993335490 -0.1599259930 -0.0138945705
H 1.0000000 2.0513383313 0.0096638470 0.1430900231
H 1.0000000 1.1708905908 1.5469469997 0.0298335506
 $END
