 $BASIS GBASIS=N31 NGAUSS=6 NDFUNC=1 NPFUNC=1 $END
 $CONTRL SCFTYP=RHF RUNTYP=OPTIMIZE DFTTYP=B3LYP MAXIT=60 MULT=1 ICHARG=0 $END 
 $SYSTEM MEMDDI=1000 MWORDS=30 $END
 $STATPT NSTEP=999 $END
 $SCF DIRSCF=.TRUE. $END
 $DATA

C1
C 6.0000000 2.51470 0.08350 -0.00710
C 6.0000000 1.04050 0.04470 0.00650
C 6.0000000 0.30890 1.23560 0.01270
C 6.0000000 -1.07260 1.19630 0.02500
O 8.0000000 -1.78510 2.35470 0.03060
C 6.0000000 -1.73560 -0.02820 0.03130
O 8.0000000 -3.09390 -0.06380 0.04300
C 6.0000000 -1.00920 -1.21620 0.02520
O 8.0000000 -1.66000 -2.41040 0.03130
C 6.0000000 0.37240 -1.18280 0.00750
O 8.0000000 3.09430 1.15130 -0.01300
O 8.0000000 3.21890 -1.06540 -0.00750
H 1.0000000 0.82260 2.18560 0.00820
H 1.0000000 -1.99910 2.68920 -0.85110
H 1.0000000 -3.49460 -0.07460 -0.83700
H 1.0000000 -1.85600 -2.75600 -0.85030
H 1.0000000 0.93520 -2.10460 0.00240
H 1.0000000 4.18280 -0.98950 -0.01670
 $END
