 $BASIS GBASIS=N21 NGAUSS=3 $END
 $CONTRL SCFTYP=UHF MAXIT=60 MULT=2 ICHARG=1 $END
 $SYSTEM MEMDDI=1000 MWORDS=30 $END
 $SCF DIRSCF=.TRUE. $END
 $STATPT OPTTOL=0.0001 NSTEP=999 $END
 $DATA

C1
C 6.0000000 -0.4805827013 0.2574298214 -0.3562470455
H 1.0000000 -0.3950906039 0.0842825993 -1.4331830201
C 6.0000000 0.5816350737 -0.5546029556 0.4005330954
C 6.0000000 1.9939761610 -0.1002376789 0.0037717868
N 7.0000000 2.9966123094 -0.8837403629 0.5145850527
O 8.0000000 2.2086812885 0.8928453784 -0.7056850388
H 1.0000000 0.4681171458 -0.4168998755 1.4851742701
H 1.0000000 0.4765843979 -1.6281400787 0.1966126165
H 1.0000000 2.8118031458 -1.7000282039 1.0841740673
H 1.0000000 3.9584715651 -0.6374866458 0.3076958403
H 1.0000000 -1.4882215998 -0.0185355895 -0.0302550974
H 1.0000000 -0.3224061821 1.3252335915 -0.1832165273
 $END
