 $BASIS GBASIS=N21 NGAUSS=3 $END
 $CONTRL SCFTYP=RHF RUNTYP=OPTIMIZE DFTTYP=B3LYP MAXIT=60 MULT=1 ICHARG=0 $END 
 $SYSTEM MEMDDI=1000 MWORDS=30 $END
 $STATPT NSTEP=999 $END
 $SCF DIRSCF=.TRUE. $END
 $DATA

C1
C 6.0000000 -0.47989 0.22872 -0.38429
H 1.0000000 -0.40018 -0.01311 -1.44818
C 6.0000000 0.58550 -0.50682 0.42716
C 6.0000000 2.00337 -0.06711 0.05810
N 7.0000000 2.99095 -0.94764 0.41242
O 8.0000000 2.24882 0.99094 -0.50281
H 1.0000000 0.45042 -0.30627 1.49959
H 1.0000000 0.49404 -1.59396 0.30690
H 1.0000000 2.80399 -1.77346 0.95786
H 1.0000000 3.94867 -0.65654 0.28579
H 1.0000000 -1.48355 -0.04360 -0.04390
H 1.0000000 -0.35256 1.30897 -0.28468
 $END
