 $BASIS GBASIS=N31 NGAUSS=6 NDFUNC=1 NPFUNC=1 $END
 $CONTRL SCFTYP=RHF RUNTYP=OPTIMIZE DFTTYP=B3LYP MAXIT=60 MULT=1 ICHARG=0 $END 
 $SYSTEM MEMDDI=1000 MWORDS=30 $END
 $STATPT NSTEP=999 $END
 $SCF DIRSCF=.TRUE. $END
 $DATA

C1
C 6.0000000 -1.04450 0.97660 -0.20780
C 6.0000000 -2.30660 -1.27240 -0.13680
C 6.0000000 1.28940 1.05250 -1.08330
C 6.0000000 1.32510 -0.47170 -1.22030
C 6.0000000 -0.58010 1.30040 1.21360
C 6.0000000 -1.97430 -2.70260 0.29350
O 8.0000000 3.55520 0.43500 1.41000
C 6.0000000 -0.11190 1.61790 -1.24030
C 6.0000000 -2.47630 1.46600 -0.44680
C 6.0000000 -3.43340 0.86190 0.57230
C 6.0000000 -3.00930 -0.53480 1.00730
C 6.0000000 2.35010 -0.88300 -0.17200
C 6.0000000 2.66560 0.33810 0.58760
O 8.0000000 1.82530 1.33260 0.23970
C 6.0000000 0.01950 -1.12140 -0.89560
C 6.0000000 -1.03040 -0.51920 -0.44750
C 6.0000000 2.85700 -2.09860 0.01900
H 1.0000000 1.94350 1.48610 -1.83970
H 1.0000000 1.65860 -0.76730 -2.21500
H 1.0000000 -0.47930 1.40350 -2.24380
H 1.0000000 -0.08720 2.69670 -1.08630
H 1.0000000 -2.50240 2.55250 -0.36290
H 1.0000000 -2.79120 1.17710 -1.44960
H 1.0000000 0.35020 0.77160 1.42110
H 1.0000000 -0.41630 2.37400 1.30660
H 1.0000000 -1.34320 0.98620 1.92560
H 1.0000000 -0.05210 -2.18800 -1.04960
H 1.0000000 -2.94990 -1.28960 -1.01660
H 1.0000000 -3.47070 1.50880 1.44870
H 1.0000000 -4.42940 0.80770 0.13270
H 1.0000000 -3.89120 -1.09940 1.30970
H 1.0000000 -2.32790 -0.45490 1.85430
H 1.0000000 -1.34550 -2.67740 1.18350
H 1.0000000 -2.89690 -3.23880 0.51560
H 1.0000000 -1.44380 -3.21040 -0.51190
H 1.0000000 2.54280 -2.91940 -0.60870
H 1.0000000 3.58250 -2.26430 0.80170
 $END
